 # Version information for this restart file 
 # current date 2023-07-21 13:55:11.216
 # current working dir /mnt/lustre/indy2lfs/work/tc047/tc047/mrnuff-cirrus/cp2k
 # Program compiled at                              Thu Jun 30 12:29:55 BST 2022
 # Program compiled on                                             cirrus-login3
 # Program compiled for                                             Cirrus-intel
 # Source code revision number                                       git:e635599
 &GLOBAL
   PRINT_LEVEL  LOW
   PROJECT_NAME H2O-32
   RUN_TYPE  MD
 &END GLOBAL
 &MOTION
   &MD
     ENSEMBLE  NVE
     STEPS  10
     TIMESTEP     4.9999999999999994E-01
     STEP_START_VAL  10
     TIME_START_VAL     4.9999999999999982E+00
     ECONS_START_VAL    -5.5038323990322908E+02
     TEMPERATURE     3.0000000000000000E+02
     &AVERAGES  T
       &RESTART_AVERAGES
         ITIMES_START  1
         AVECPU     2.7082130832597615E+00
         AVEHUGONIOT     0.0000000000000000E+00
         AVETEMP_BARO     0.0000000000000000E+00
         AVEPOT    -5.5053313117531786E+02
         AVEKIN     1.4915408701850000E-01
         AVETEMP     3.3051985481790791E+02
         AVEKIN_QM     0.0000000000000000E+00
         AVETEMP_QM     0.0000000000000000E+00
         AVEVOL     6.4546932590671631E+03
         AVECELL_A     1.8619093642095663E+01
         AVECELL_B     1.8619093642095663E+01
         AVECELL_C     1.8619093642095663E+01
         AVEALPHA     9.0000000000000000E+01
         AVEBETA     9.0000000000000000E+01
         AVEGAMMA     9.0000000000000000E+01
         AVE_ECONS    -2.3223844501769233E+00
         AVE_PRESS     0.0000000000000000E+00
         AVE_PXX     0.0000000000000000E+00
       &END RESTART_AVERAGES
     &END AVERAGES
   &END MD
 &END MOTION
 &FORCE_EVAL
   METHOD  QS
   &DFT
     BASIS_SET_FILE_NAME GTH_BASIS_SETS
     POTENTIAL_FILE_NAME POTENTIAL
     &SCF
       SCF_GUESS  ATOMIC
       &OT  T
         MINIMIZER  DIIS
       &END OT
       &PRINT
         &RESTART  OFF
         &END RESTART
       &END PRINT
     &END SCF
     &QS
       EPS_DEFAULT     9.9999999999999998E-13
       EXTRAPOLATION  PS
       EXTRAPOLATION_ORDER  3
     &END QS
     &MGRID
       CUTOFF     2.8000000000000000E+02
       REL_CUTOFF     3.0000000000000000E+01
     &END MGRID
     &XC
       DENSITY_CUTOFF     1.0000000000000000E-10
       GRADIENT_CUTOFF     1.0000000000000000E-10
       TAU_CUTOFF     1.0000000000000000E-10
       &XC_FUNCTIONAL  NO_SHORTCUT
         &PADE  T
         &END PADE
       &END XC_FUNCTIONAL
     &END XC
   &END DFT
   &SUBSYS
     &CELL
       A     9.8528000000000002E+00    0.0000000000000000E+00    0.0000000000000000E+00
       B     0.0000000000000000E+00    9.8528000000000002E+00    0.0000000000000000E+00
       C     0.0000000000000000E+00    0.0000000000000000E+00    9.8528000000000002E+00
       MULTIPLE_UNIT_CELL  1 1 1
     &END CELL
     &COORD
O    2.3077782242667242E+00    9.1284895619805617E+00    5.0766947968114007E+00
O    1.2694476683403846E+00    2.3864039662553860E+00    7.7598132936546271E+00
O    1.5824249564957913E+00    6.9181769926994319E+00    6.3625098089051113E-01
O    2.9892602742069272E+00    3.7359341973913005E+00    1.8911141610350264E+00
O    2.6108186402161665E-01    5.8689944381349646E+00    6.5402989221505763E+00
O    9.0278319139555201E+00    6.0937566250303803E+00    1.1666151198187083E-01
O    7.2515818561223027E+00    8.4791195698207424E+00    5.7859021165792415E+00
O    5.0589787276348721E+00    9.4446377481233803E+00    7.2899352538516393E-01
O    6.3000710177998904E+00    7.3741547366748152E+00    3.7210209363982396E+00
O    7.7591207915692726E+00    8.3779070610769768E+00    9.2660397041929414E+00
O    8.2720522422539666E+00    3.8679995624875012E+00    5.7798644466537228E+00
O    8.8774372240859165E+00    2.0153836170274597E+00    1.6765669915316492E+00
O    9.1647492361469016E+00    2.8794018935798427E-01    6.8469289181347781E+00
O    4.9492927182368822E+00    4.1245046368863365E+00    1.9632551866140646E-01
O    2.7952939878575846E+00    8.7240142447586173E+00    2.4318024689038000E+00
O    9.1631809981663679E+00    3.5565355384862185E+00    8.8800079319790441E+00
O    1.4522059608234374E+00    1.3745124012379049E+00    2.3788586173629351E+00
O    6.5236209332984796E+00    1.1578558946112218E+00    7.6186681723228791E+00
O    2.7843063891174045E+00    8.7899165721742711E-01    9.5419625803473789E+00
O    8.4395826006055208E-01    2.0901966568574171E+00    5.0284680613232915E+00
O    6.4030893256916377E+00    1.9047178562401297E+00    2.8138014184058024E-01
O    2.7024989790094738E+00    4.4444068572279303E+00    5.8368114587820186E+00
O    4.6152242230355451E+00    9.2483486883688180E+00    6.5576856813809004E+00
O    3.6086267977007083E+00    6.2063154777331855E+00    3.1576008061266125E+00
O    3.3376667951939463E+00    6.9335993247596441E+00    7.4542180227523946E+00
O    5.3127924329990046E+00    3.2932745806408983E+00    6.1772271240415897E+00
O    5.2305635610306584E+00    6.9175733874514673E+00    9.5892902439326662E+00
O    8.5203671550379323E-01    5.6003585699290079E+00    3.8157185673369316E+00
O    9.7498744611250903E+00    8.1645216298304408E+00    3.6646371217779037E+00
O    8.4834893893435162E+00    4.4294581325094837E+00    2.6663133409783866E+00
O    1.3368518141599741E+00    8.6142508999816805E+00    8.2811319716548280E+00
O    8.0347350852910857E+00    9.2304863938484552E+00    2.0046322819759324E+00
H    1.9144682328455065E+00    9.9113160007922119E+00    5.5874902269871232E+00
H    3.2181757054556686E+00    9.0461264500777556E+00    5.5888661576468763E+00
H    5.6382835987729718E-01    3.1042014106946461E+00    8.1423956567310665E+00
H    1.7642322767603542E+00    2.9334394282530809E+00    7.0518752685500088E+00
H    2.0711147660481455E+00    6.0349163027747581E+00    8.0220773151149050E-01
H    1.7590285852859167E+00    7.5647465652694272E+00    1.4070354878184277E+00
H    3.8084656860227564E+00    3.8245167955472930E+00    1.2795305479836587E+00
H    2.9360958386125424E+00    4.5615508226620047E+00    2.4977951304789006E+00
H    1.0309104822564765E+00    5.1932724625486415E+00    6.4362106097555136E+00
H    4.7938926646335384E-01    6.4715976666247430E+00    5.7662248915688030E+00
H    9.9701427934101847E+00    6.4788928084557149E+00    4.0619800421797186E-01
H    8.5376010343637816E+00    6.8849023926796269E+00   -3.4303773940902033E-01
H    7.8139973056961631E+00    7.8007362546248027E+00    6.2600836731778893E+00
H    7.8467037387114305E+00    9.1153005155834901E+00    5.2813327884063144E+00
H    4.4692717989273447E+00    9.9996141007886390E+00    5.0421624575025054E-02
H    5.7611750770528305E+00    1.0170033134328058E+01    9.5222436968710911E-01
H    6.5687717051476922E+00    7.9622789539396051E+00    2.9421903673410936E+00
H    6.7740814878805908E+00    7.7200735814721053E+00    4.6011197362003413E+00
H    7.8139833269157259E+00    8.7785804908657123E+00    1.0261134906325829E+01
H    7.9430703763232771E+00    9.1523570552556013E+00    8.6173276577641182E+00
H    8.3325499109016494E+00    3.3390128600523332E+00    6.6419500612267086E+00
H    8.5840719842121374E+00    4.7633907188931222E+00    6.1829726228744430E+00
H    9.8722364294804681E+00    1.6166655807281982E+00    1.8306322235711618E+00
H    8.7190946510181959E+00    2.9389263791227904E+00    2.1504059464346983E+00
H    9.6557020547416759E+00    1.1689710342019375E+00    6.6378614317856925E+00
H    9.9917544852011666E+00   -2.3838248957364869E-01    7.2848414159970822E+00
H    4.7257007753163389E+00    4.1799039346133284E+00   -7.8886963347769090E-01
H    5.2874538319442559E+00    5.0945720107358641E+00    3.7363020752177972E-01
H    3.6626753014161983E+00    9.1577914188446314E+00    2.0012241025422921E+00
H    2.7371645562541320E+00    9.0761758618223229E+00    3.4502083147223006E+00
H    9.0787118005695291E+00    4.6004128556705535E+00    9.0571379945226891E+00
H    9.2863220790726917E+00    3.1005301308976385E+00    9.7877696461572938E+00
H    1.9502376962716252E+00    2.1436756790005642E+00    1.8532590392039001E+00
H    1.8566372738724408E+00    4.6847638910073341E-01    2.1472695099296977E+00
H    7.5074934742551447E+00    8.4942872442888517E-01    7.4528072317326250E+00
H    6.6213475861830418E+00    1.5799263779214225E+00    8.6109676554400636E+00
H    2.3998241156928466E+00    1.6488588073837842E+00    8.9434435273556225E+00
H    2.3241434803796954E+00    6.3413692385543938E-02    9.0529930131710294E+00
H    1.2919657256339887E+00    1.8307981051182178E+00    4.1172207227330926E+00
H    2.6290070005219995E-01    2.8974793779063681E+00    4.8420477959972681E+00
H    5.6879896870155386E+00    2.6651747670042467E+00    4.2472643599371906E-01
H    7.2887084639988471E+00    2.3552618327663817E+00    5.4277196785543891E-01
H    3.2672058584673511E+00    5.2754711261282248E+00    5.9803342341238999E+00
H    3.3282094513414391E+00    3.6421829260713570E+00    5.9096345756289006E+00
H    5.4434700672507859E+00    8.9120249104399534E+00    6.0285283745184035E+00
H    5.0494986500141437E+00    9.7823497955704006E+00    7.3339504968231859E+00
H    4.6161020787360529E+00    6.3955160282887613E+00    3.3213760118836397E+00
H    3.3034162147757966E+00    7.1743752058653829E+00    2.9211155743672803E+00
H    3.9060787854310748E+00    7.6301122631150298E+00    6.9338986726054905E+00
H    3.8491746160480589E+00    6.9867144649165231E+00    8.3697176103534545E+00
H    5.9281623747159795E+00    2.9961200299043131E+00    5.4585620630512706E+00
H    5.3732980893840310E+00    2.5030498905760248E+00    6.8207551251782634E+00
H    5.0001021836945130E+00    7.7517481351432611E+00    1.0174380913449831E+01
H    6.1690863223863266E+00    7.2144535052318144E+00    9.2827050089585459E+00
H    1.7480178600361136E+00    5.2870044633243882E+00    4.2228481676280669E+00
H    4.1380033329187305E-01    4.8429231144601408E+00    3.3126104119949589E+00
H    1.0134644993840228E+01    7.1646276566479266E+00    3.6261333302199041E+00
H    1.0625112456017801E+01    8.6491949815112275E+00    3.6451220071100221E+00
H    8.0335236062102720E+00    5.1307873713491974E+00    2.1044277247951304E+00
H    8.0193097732768521E+00    4.3087573793443301E+00    3.5614057154847902E+00
H    1.8921882604941511E+00    7.8501365636858988E+00    7.7796720530815113E+00
H    7.6904940277505396E-01    8.1666216370964637E+00    8.9807220126640139E+00
H    8.2256329634137657E+00    1.0204310797453235E+01    2.2765487424124733E+00
H    8.7836756502707800E+00    8.6477390395662717E+00    2.4963058780830605E+00
     &END COORD
     &VELOCITY
           2.6433278672910985E-04   -1.0146902398916948E-04   -6.2717057662047720E-05
           1.9192843501054463E-04   -1.6061110313284933E-04   -8.3323413991059141E-05
          -1.3622192525897394E-04    6.0028895946127762E-05   -1.1337126288234822E-04
           2.4546591293595610E-04   -3.1626223939234361E-04    1.4661782881407587E-04
           3.1396139117211268E-04   -1.4050905203673316E-04    7.2762690420769376E-05
          -3.4409161661668875E-06   -2.3816192396813228E-04    2.0008781896378738E-04
          -3.8089485515097622E-05   -1.3262092488445642E-04    1.1670156701521419E-04
          -3.0873094449701229E-04   -8.4580423399433576E-05   -1.3129916888763121E-04
          -3.0096693469763684E-04    8.7665924955151908E-05   -2.6382135324920828E-04
          -3.7849100890766447E-05    2.4557062424819347E-04   -6.4031056580446367E-05
          -5.4728571275383642E-05    2.9734303700460445E-04   -1.0787067278036386E-04
          -6.8903870699128805E-05   -8.6515444946843551E-05    7.5594745179420619E-05
           1.7573245376020986E-04    1.5051234726824619E-05   -1.6847182640693717E-04
          -9.3589522683538962E-05   -4.3680825346199501E-05    2.1857959926106896E-04
          -4.7262600139742808E-05    3.6545797126324135E-04   -1.5419866171918765E-06
           3.6334232007353555E-04    9.0387122082974467E-05    9.0939372471800532E-05
           3.4909634609689370E-05   -2.1443906676407438E-04    1.3687869445363078E-04
          -8.5899368622762914E-05    1.4154266550045008E-04    1.9079803529220300E-04
           1.3549076744716313E-04   -5.0770122973791242E-05   -7.2589516131269592E-05
          -1.0114797663337191E-04    1.2822153686886965E-04    1.6011891098389254E-04
           1.9218682296698146E-04   -1.2217899624124656E-04    3.8092347955841693E-04
          -2.7929219997023682E-04   -1.3257313861657534E-04   -1.2483170770019391E-04
           1.1073844603053858E-04   -9.3638879098750948E-05   -1.8538090445749888E-04
          -4.5827945590362076E-04    6.8254122487181816E-05   -1.5540180970915378E-05
          -3.2124768084520078E-04    7.4725294864593815E-05   -2.0925137848766418E-04
           2.0053364101354948E-04    1.6354457609522586E-04    2.0358566205055495E-04
           5.1780193053780626E-05   -3.8485273227629497E-04    7.9464732962014972E-05
           7.8390561101719707E-05    1.9855743952844050E-05   -6.0726710593197552E-05
          -2.5569907659358550E-04   -3.0615159771476218E-05    3.1951503243384382E-05
          -2.9394386685626474E-04    5.0741026863989466E-06   -1.1608629113155880E-04
           1.1295713021716410E-05    2.9915916376957224E-04    1.3213861674748559E-05
          -1.6079241195007650E-04    7.5647143742228369E-05    1.3670391866224481E-04
           1.5925322712757217E-03    6.5227128571992588E-05   -3.9899967499210283E-04
           7.7027712560638053E-04   -3.2236801356705792E-04   -1.8014161757290745E-04
          -1.5892460580191651E-04    5.6025128450768510E-04    1.0481507012916399E-03
           3.1235544619189070E-05   -3.4834324551686593E-04   -1.5507338084348489E-03
          -1.6580669542067141E-04   -9.2736166052874306E-04    3.8011772311627039E-04
           1.7180012781561591E-06   -2.3332813444950989E-04   -1.3726778235578876E-03
          -2.2032282559199273E-05    3.0888349384771400E-04   -4.5855510900829575E-04
          -7.1640852727939419E-05   -2.1830108598708573E-04   -3.7086627260439432E-04
           5.6305200625532197E-04   -2.5042994184029004E-04   -1.1581198621446311E-03
          -6.1978753166097426E-04   -6.6647244346642448E-04   -9.1133395938011827E-04
           1.1664211720613046E-03   -3.3859769561384181E-04    6.3217107694706981E-05
           1.6912212650732730E-04   -2.8102438567758183E-06   -1.7538772288348202E-04
          -5.3971515195712404E-04   -6.1916076797269466E-04    4.7068430977792351E-05
           7.3506377140106639E-04   -7.7599931756707125E-04    6.7190727266235137E-04
           2.3666711969680277E-04   -4.6085861702648690E-04   -5.9918286510937961E-04
          -9.6891700370640695E-04   -6.1653930979964800E-04   -1.0598402209745952E-03
          -5.9484536694135240E-04    4.2158925402305426E-04   -4.0622307194123643E-04
           3.9668482796856219E-05   -3.7735831881958082E-04   -4.1887507110174524E-04
           6.9194907601868763E-04    2.1123666615221294E-04    6.3171215574154551E-04
           1.0313997649115381E-03    7.1792669876125906E-04   -8.7865246929217083E-04
          -1.2552876463757106E-04    1.0741109061830191E-03    4.2002837155509975E-04
           1.0324001322418962E-03    4.2718982840641868E-04   -8.9776935171252594E-04
           1.7322543162349810E-03   -4.9497289076985132E-04   -5.3047810403363189E-04
          -4.0080186486967577E-04    4.5429696162045544E-04    5.1515788366505153E-04
           1.1948090463856367E-03   -6.8812086808702584E-04   -5.1207473023607826E-04
          -1.1234804719879182E-03    5.8572422084593153E-04    7.5895350722320792E-04
          -3.6489515252921220E-04   -1.1267490663254892E-04   -4.0456433576623269E-04
           1.7562306704691503E-05    5.1381838543710767E-04   -5.2837011398090090E-04
           6.0065003804829703E-04    3.2486584050401532E-04   -5.3343059511097438E-04
           8.9632818899470137E-05   -1.0338097004949829E-03    1.5816255475626037E-03
           1.5663172905831108E-04    3.6265173944699308E-04    7.4511076424134252E-04
           3.7037306762247745E-04   -3.6586344892341024E-05   -7.4005247519755898E-04
          -7.1228966566582472E-04   -2.9752178597091913E-04    3.7391607249296754E-04
           2.5152503270505682E-04   -1.3772664376757757E-04    4.0650035198252355E-04
           5.4292044411359238E-04   -8.7263222210017173E-05   -4.7150411877624500E-04
          -3.0323304725678960E-04   -3.3976600206590531E-04   -1.0833375203813536E-04
          -1.8482983972663896E-04    1.6060351736935861E-04   -1.4264734211840265E-04
           7.3675200359689884E-04    2.3143001943122372E-04   -1.8417058476757481E-03
           1.0301743202802954E-03    7.9279129558083511E-05   -5.9524466706453532E-04
          -8.8124457713941134E-04    1.2603797914394953E-04    1.7279259811630305E-04
          -7.1200437698391687E-04    6.1641075067417187E-04    1.5810359205922748E-04
           5.7949643325303521E-04    1.8143903751255842E-04   -5.4249445948366967E-05
           1.9411422619787917E-04   -3.9317375689502108E-06    5.9467364880582709E-04
          -3.2774109540820151E-04    6.7149877835133930E-04   -1.1944736252296490E-03
           1.5878689895370325E-03   -1.3637273903506430E-03    4.4083920535108320E-04
           7.1329377905759962E-04    1.2918210143532032E-03   -9.0440805625530461E-05
          -5.9533792904185845E-04   -3.6458791904876947E-04   -8.5810722024936127E-04
           6.9476126100896814E-04   -5.3569748810834966E-04   -1.4361854109577922E-04
           1.2526859015128171E-04    2.0812338625447535E-03    1.0139226384595643E-03
          -6.7171226971465383E-05   -8.2152379148603622E-05    8.8423138287031192E-04
          -1.6405388833879195E-04   -7.0632868566530751E-04    6.9641921154005976E-04
           7.4788626062757217E-04    2.2510011748306695E-04    6.3629400585802937E-04
          -2.6670790667223797E-04    4.1403577524477369E-04   -5.4927571230994118E-04
           2.7642696194337746E-04    1.2011342044312861E-03    4.2470683442908660E-04
           8.4182007559776455E-04    1.0385333125375743E-03    4.4038061721416116E-04
          -3.2067724303013183E-04    1.0394134761329953E-04    3.3657849089132073E-04
           1.1068162692614398E-03   -4.8342273561959384E-04   -6.9881601363595868E-04
          -9.9352479732512560E-04    5.8724194256177739E-04    5.2402455098211453E-04
           5.8039967877000255E-04   -5.1269379162464403E-04   -5.4807276474133182E-04
           5.1172017841150574E-04    5.3303424316708309E-04    4.7419673377810845E-04
          -1.2804627697548838E-04    6.5511266452833753E-04   -4.8458338244330388E-04
          -3.3249204593355426E-04   -4.7176613861598022E-04   -1.9384300544471927E-04
          -9.9033215909812510E-04    3.3664132415717565E-04   -1.7321047908189273E-04
           4.6042506494505783E-04    3.9454286158564859E-04    4.6181160452312477E-04
     &END VELOCITY
     &KIND H
       BASIS_SET TZV2P-GTH
       POTENTIAL GTH-PADE-q1
       &POTENTIAL
 1
  0.2000000000000000E+00 2 -0.4180236800000000E+01  0.7250748200000000E+00
 0
         # Potential name:  GTH-PADE-Q1  for symbol:  H
         # Potential read from the potential filename: POTENTIAL
       &END POTENTIAL
     &END KIND
     &KIND O
       BASIS_SET TZV2P-GTH
       POTENTIAL GTH-PADE-q6
       &POTENTIAL
 2 4
  0.2476208600000000E+00 2 -0.1658031797000000E+02  0.2395700920000000E+01
 2
  0.2217861400000000E+00 1  0.1826691718000000E+02
  0.2568289000000000E+00 0
         # Potential name:  GTH-PADE-Q6  for symbol:  O
         # Potential read from the potential filename: POTENTIAL
       &END POTENTIAL
     &END KIND
     &TOPOLOGY
       NUMBER_OF_ATOMS  96
       MULTIPLE_UNIT_CELL  1 1 1
     &END TOPOLOGY
   &END SUBSYS
 &END FORCE_EVAL
