 # Version information for this restart file 
 # current date 2023-08-03 14:53:37.686
 # current working dir /mnt/lustre/indy2lfs/work/tc047/tc047/mrnuff-cirrus/cp2k/nuff-benchmarks/H2O-64-32node
 # Program compiled at                               Wed Aug 2 15:51:15 BST 2023
 # Program compiled on                                             cirrus-login2
 # Program compiled for                                             Cirrus-intel
 # Source code revision number                                       git:d8d7100
 &GLOBAL
   PRINT_LEVEL  LOW
   PROJECT_NAME H2O-64
   RUN_TYPE  MD
 &END GLOBAL
 &MOTION
   &MD
     ENSEMBLE  NVE
     STEPS  10
     TIMESTEP     4.9999999999999994E-01
     STEP_START_VAL  10
     TIME_START_VAL     4.9999999999999982E+00
     ECONS_START_VAL    -1.1007623251464702E+03
     TEMPERATURE     3.0000000000000000E+02
     &AVERAGES  T
       &RESTART_AVERAGES
         ITIMES_START  1
         AVECPU     2.3334057990694417E+00
         AVEHUGONIOT     0.0000000000000000E+00
         AVETEMP_BARO     0.0000000000000000E+00
         AVEPOT    -1.1010668154404104E+03
         AVEKIN     3.0069890126034188E-01
         AVETEMP     3.3142439675492693E+02
         AVEKIN_QM     0.0000000000000000E+00
         AVETEMP_QM     0.0000000000000000E+00
         AVEVOL     1.2909542132085600E+04
         AVECELL_A     2.3458682268415796E+01
         AVECELL_B     2.3458682268415796E+01
         AVECELL_C     2.3458682268415796E+01
         AVEALPHA     9.0000000000000000E+01
         AVEBETA     9.0000000000000000E+01
         AVEGAMMA     9.0000000000000000E+01
         AVE_ECONS    -5.7036316827179281E+00
         AVE_PRESS     0.0000000000000000E+00
         AVE_PXX     0.0000000000000000E+00
       &END RESTART_AVERAGES
     &END AVERAGES
   &END MD
 &END MOTION
 &FORCE_EVAL
   METHOD  QS
   &DFT
     BASIS_SET_FILE_NAME GTH_BASIS_SETS
     POTENTIAL_FILE_NAME POTENTIAL
     &SCF
       SCF_GUESS  ATOMIC
       &OT  T
         MINIMIZER  DIIS
       &END OT
       &PRINT
         &RESTART  OFF
         &END RESTART
       &END PRINT
     &END SCF
     &QS
       EPS_DEFAULT     9.9999999999999998E-13
       EXTRAPOLATION  PS
       EXTRAPOLATION_ORDER  3
     &END QS
     &MGRID
       CUTOFF     2.8000000000000000E+02
       REL_CUTOFF     3.0000000000000000E+01
     &END MGRID
     &XC
       DENSITY_CUTOFF     1.0000000000000000E-10
       GRADIENT_CUTOFF     1.0000000000000000E-10
       TAU_CUTOFF     1.0000000000000000E-10
       &XC_FUNCTIONAL  NO_SHORTCUT
         &PADE  T
         &END PADE
       &END XC_FUNCTIONAL
     &END XC
   &END DFT
   &SUBSYS
     &CELL
       A     1.2413800000000002E+01    0.0000000000000000E+00    0.0000000000000000E+00
       B     0.0000000000000000E+00    1.2413800000000002E+01    0.0000000000000000E+00
       C     0.0000000000000000E+00    0.0000000000000000E+00    1.2413800000000002E+01
       MULTIPLE_UNIT_CELL  1 1 1
     &END CELL
     &COORD
O    1.2265691221627945E+01    1.3554379171424389E+00    1.0875430684012674E+01
O    6.4523069643985060E+00    3.7059062633719053E+00    8.6472636643113585E+00
O    7.7675673951362018E-02    2.1684371536246174E+00    8.2608521123256597E+00
O    1.2086330589737083E+01    2.6383252619362478E+00    2.1708326975636463E+00
O    1.2290560196510310E+01    4.1705949204699246E+00    1.2102197043947442E+01
O    7.2035596726110045E+00    9.4146485856914608E-01    4.7596718561381213E+00
O    8.3332223409533892E+00    7.2077504740972058E+00    4.6827221582126315E+00
O    1.2331825707496048E+01    1.1521085308244926E+01    8.0815299734465871E+00
O    3.2742345188961481E+00    4.4591086965600111E+00    9.1745403213676724E+00
O    2.8601595120416423E+00    3.7871245016872086E+00    6.5410915744247724E+00
O    1.3797112886110281E+00    6.3917880581901523E+00    5.6509704637624814E-01
O    1.8717761880990693E+00    8.6859262981941630E+00    2.0908519529190799E+00
O    3.7724064802103192E+00    1.2107291458155803E+01    8.6206045004981799E+00
O    6.4253589961830357E+00    3.6667889351994227E+00    2.7875811960065500E+00
O    1.9996776817698965E+00    1.8525814940777741E+00    4.8671276287696879E+00
O    8.2870232697559221E+00    2.4222003421165312E+00    6.9417328333568449E+00
O    5.7524951496893220E+00    3.3354107633528702E+00    1.2486441927304291E+01
O    1.1313051414990126E+01    5.6568428932996646E+00    2.2481541693217455E+00
O    4.2889057121707692E+00    2.1146768890845129E+00    1.0586394798004815E+01
O    5.3987998378703539E+00    3.3584238927998422E+00    5.4860023554711876E+00
O    6.5093881290543862E+00    1.1870556687544113E+01    7.1448877052672943E-01
O    3.2525895246416758E+00    2.3434817325715089E+00    2.4132492711214737E+00
O    8.0086831362982274E+00    6.3565304698358593E+00    7.4977786194835589E+00
O    5.9288605826881176E+00    6.5082868323258651E+00    1.2195795095729451E+01
O    1.0610386311436494E+01    1.1861263632461048E+01    1.2200578573099008E+01
O    9.3403643295945002E+00    3.6891058088922377E+00    3.5273419115089539E+00
O    1.1111299843541094E+00    5.7890416771150681E+00    6.6473030303814795E+00
O    8.0194980711238291E+00    3.3269761635710458E+00    1.0869760158477481E+01
O    1.2376083013546692E+01    9.6748017485163977E+00    1.1772437464201820E+01
O    4.2098973265834791E+00    7.0914059878456728E+00    8.1403049713510978E+00
O    3.7839651612970653E+00    8.2290477965538678E+00    1.1585029598452703E+01
O    1.1076298200094957E+01    4.5429098149791054E+00    7.8327544665101057E+00
O    1.0435269832523151E+01    8.4217540714630204E+00    1.0328469115847672E+00
O    1.9827956974872860E+00    6.4005653370062046E+00    1.0353833557955900E+01
O    4.7041684252649354E+00    5.6226860857457805E-01    5.6097297040744651E+00
O    8.7178686987316905E+00    1.2242114021519045E+01    8.0976596680829616E+00
O    2.6327397232809107E+00    1.0520524625894527E+01    8.2914708818938102E-02
O    7.2399912123022796E+00    1.0511639516828582E+01    4.2432763972060421E+00
O    2.2807117212627972E+00    2.7612433538578551E-01    1.0807249794939503E+01
O    8.8632074472443740E+00    9.4642167576058989E-01    1.3400870233089552E+00
O    1.9443010564853727E+00    8.0893907787970996E+00    7.5354954085064882E+00
O    9.6598268770606257E+00    8.0354923931291733E+00    9.8565408159862109E+00
O    1.0903669231891184E+01    8.3307122625610361E+00    6.4773119488925275E+00
O    3.5124665132314821E+00    4.8693737552338474E+00    1.5451810315134094E+00
O    7.9775887181865315E+00    8.6026768360209953E+00    1.2050859810705248E+01
O    8.3694028848611772E+00    1.0019375195784662E+01    6.6836126003785052E+00
O    5.6546609223314626E+00    6.0810554249666202E+00    5.5283899539327228E+00
O    1.1742552751790564E+01    1.6241883377932516E+00    5.0859546263628648E+00
O    9.7585749951473701E+00    9.8110344561912761E+00    3.5364834297913648E+00
O    3.9627902122681511E+00    1.0548916241539358E+01    4.6848631718496021E+00
O    9.0110924202401399E-01    6.3699160958047782E+00    4.0614660823326059E+00
O    6.8825876156875614E+00    6.4084176011472627E+00    2.5046872105492120E+00
O    3.8180772811827803E+00    6.6391261700161168E+00    3.7786504202964872E+00
O    6.5639467316230258E+00    8.3081673455501051E+00    8.8142645601751006E+00
O    9.7792980437880672E+00    1.3440093692240559E-01    3.8518018541300045E+00
O    4.1040698796140580E+00    1.1645975677414299E+01    2.2167371830935529E+00
O    5.3225429743821149E+00    8.7370886225245705E+00    2.7520608154201383E+00
O    1.0008058591962463E+01    5.3735029665408200E+00    5.3757689310938499E+00
O    1.2260293130221402E+01    8.6464312203550637E+00    3.9709765249998119E+00
O    2.3431385601209787E+00    1.0747244557908994E+01    6.8128199420223430E+00
O    7.0016868551874545E+00    6.6241368924081412E-01    1.0534335410490806E+01
O    5.1724988369890657E+00    1.0218489635933011E+01    1.0357201131261663E+01
O    1.1186305513789597E+01    5.8851551015740249E+00    1.0299187716035490E+01
O    1.2277001260224299E+01    8.9569800093949112E+00    9.0707829070917771E+00
H    1.2357860830731543E+01    2.3336130669252841E+00    1.1187155568543368E+01
H    1.1946220241711147E+01    1.5338173488076516E+00    9.8820453883930206E+00
H    5.5871853426087519E+00    3.4492613541410466E+00    9.0443492587053864E+00
H    6.8931134907710021E+00    3.0239505626691492E+00    7.9852740730675587E+00
H   -1.4374932807747970E-01    1.5098328419612672E+00    7.5263433502056145E+00
H   -3.8863081470385108E-01    3.0530889725932711E+00    7.9297897962463866E+00
H    1.2176296489828607E+01    2.9747369580386307E+00    1.1924332874810366E+00
H    1.2991672705128661E+01    2.9142153785983989E+00    2.5155247900316189E+00
H    1.1517567593231492E+01    4.3255900368447024E+00    1.1434680677253168E+01
H    1.2784986513018197E+01    5.0635244336048384E+00    1.2040091012078925E+01
H    6.9670622346702933E+00    1.7387225601621048E+00    4.1850000735928905E+00
H    6.2296039666330216E+00    6.8947303211102307E-01    5.1579542956582172E+00
H    7.7273735081133834E+00    7.2217674062564354E+00    5.4888583172761978E+00
H    9.1692072167871306E+00    6.6296203275137104E+00    4.9460943069401884E+00
H    1.2846855747609773E+01    1.1781022044300917E+01    8.9005547148164563E+00
H    1.1983278974113883E+01    1.0563476629178341E+01    8.3168526530917219E+00
H    3.5248483355809492E+00    3.8400890178712790E+00    9.9509258876192774E+00
H    2.4297317699946008E+00    4.9331020171900164E+00    9.5245232744318553E+00
H    2.1731938184003559E+00    4.5584091436371832E+00    6.3013341591593042E+00
H    2.8564526256043070E+00    3.8576860117975689E+00    7.5841383258266779E+00
H    1.1402539117555537E+00    7.1967454275138438E+00    1.1594208983719052E+00
H    2.2451171240553451E+00    6.0044560574516952E+00    1.0028292980711702E+00
H    2.8160026093261656E+00    8.9701473038209034E+00    2.2994247561326668E+00
H    1.3289450005948187E+00    8.9940773536407601E+00    2.8983100092883372E+00
H    4.4550591679044622E+00    1.1540320632851710E+01    9.1643576662466604E+00
H    3.0505711472949617E+00    1.2474005028879596E+01    9.2862522483548613E+00
H    5.8591666421269002E+00    3.4580100700775875E+00    3.6616851024566901E+00
H    5.8328742264890296E+00    3.4002922178484272E+00    1.9823307374077435E+00
H    9.5572611638986971E-01    1.6451712168318020E+00    4.8407909619530392E+00
H    2.2283444181418233E+00    2.4812713852572554E+00    5.6873030305150252E+00
H    8.4431245059905198E+00    1.6049877318591725E+00    7.5442116124545358E+00
H    8.0660994841682658E+00    2.0136933689786840E+00    6.0338203198001157E+00
H    5.2179741117743248E+00    2.8944033191692746E+00    1.1676399084693223E+01
H    6.6808709760188645E+00    3.4137078887783971E+00    1.1974300217660668E+01
H    1.0787579562973205E+01    6.5181197889747224E+00    2.0988579269067751E+00
H    1.1679706778665260E+01    5.3602110737704107E+00    1.3423727078772723E+00
H    3.4353057955579294E+00    1.5422699911174238E+00    1.0899340815425530E+01
H    4.8360485702943903E+00    1.4266340285647385E+00    1.0089916384864541E+01
H    4.3860607829044609E+00    3.3639145070868728E+00    5.6882685052591055E+00
H    5.6851714190645071E+00    4.3694444329673745E+00    5.5474154036563377E+00
H    6.2904804048387550E+00    1.1824217953334371E+01    1.7188480100643166E+00
H    5.6254641812453015E+00    1.2118531010247258E+01    3.2824508347039066E-01
H    3.5448573483474490E+00    1.3905341519235817E+00    2.1815279666968568E+00
H    2.6083113748093671E+00    2.2011598085361799E+00    3.2448945681041002E+00
H    7.1214218837230634E+00    5.8747071446836499E+00    7.5240572137576311E+00
H    8.6555160568690539E+00    5.7350202337790774E+00    7.0296204332789927E+00
H    6.0003836070028340E+00    5.6511562312008685E+00    1.1673082486798709E+01
H    6.2576732802191204E+00    6.3249637437982926E+00    1.3168254323635361E+01
H    1.1110396422511171E+01    1.2636582150483584E+01    1.1695466243763047E+01
H    1.0264522667314424E+01    1.2297177086809711E+01    1.3044653989288543E+01
H    9.9063833653605631E+00    4.0522743932580685E+00    2.7328440010559136E+00
H    8.5320879706476536E+00    3.4662362318689071E+00    2.9418373706986065E+00
H    1.4550165199541050E+00    6.6684268578472574E+00    7.1063081480777788E+00
H    1.0011846960113429E+00    6.1757849888513112E+00    5.6553257210840515E+00
H    7.9834383168154242E+00    3.6965600156462526E+00    9.9295254035483875E+00
H    8.0703050731562680E+00    2.3148761700539877E+00    1.0750109953178507E+01
H    1.1741856955038537E+01    1.0457046792693827E+01    1.2099116522328666E+01
H    1.2145113035773162E+01    8.9347057518292559E+00    1.2412278015077108E+01
H    3.3373441398220001E+00    7.6121189967397074E+00    7.8531113790447087E+00
H    3.8437404997803917E+00    6.2417170006997473E+00    8.6113781620860284E+00
H    3.1132048694107244E+00    7.6196674890888936E+00    1.1070334639356215E+01
H    4.4752609606007354E+00    7.6309535586689305E+00    1.2076672515554923E+01
H    1.1595109075910354E+01    4.9845971853205224E+00    7.0588086549210880E+00
H    1.0300179646157339E+01    4.1359780470031753E+00    7.3180405599937570E+00
H    1.0066859028657580E+01    8.9451142006845075E+00    1.8647420070761078E+00
H    9.5720897423753062E+00    8.2655563920177464E+00    4.9823227537648324E-01
H    1.3189876664555125E+00    6.6902311101737570E+00    9.6502228821050497E+00
H    1.4021547291055676E+00    6.4513381197009938E+00    1.1227717775738400E+01
H    4.1225227084821228E+00    1.3300958457233423E+00    5.2660310885243096E+00
H    4.6863014012486310E+00    6.4332081832319465E-01    6.6181574626619772E+00
H    9.4703739840675389E+00    1.2334173896528176E+01    8.7409121785592951E+00
H    8.8486705805522128E+00    1.1353162651343512E+01    7.5414161566641544E+00
H    1.7346243376508719E+00    1.0023269196055050E+01    1.4521089677736398E-01
H    3.3374330937770877E+00    9.8445733321800386E+00   -2.3578650080692851E-01
H    7.0506121547577463E+00    1.1505999570463931E+01    4.1254822367655155E+00
H    6.4716144239807392E+00    9.9355117782158651E+00    3.7910213271469004E+00
H    1.3268017188787211E+00    5.8361467399907918E-01    1.1128891425288643E+01
H    2.5223736851225720E+00   -5.4515284208253356E-01    1.1460505429957239E+01
H    8.7695034601089077E+00    1.8730261306346994E+00    9.9022339814304705E-01
H    8.0909040111768586E+00    3.3982611891730508E-01    9.9167137075878209E-01
H    1.1204885569469605E+00    8.3716616986636563E+00    8.1793585849233033E+00
H    2.0883466262748471E+00    8.9941815003032470E+00    7.0139251045156428E+00
H    8.9092338083699421E+00    7.7940115337033395E+00    9.2222012190835692E+00
H    9.0650360993649493E+00    8.4492997048300218E+00    1.0614237103704198E+01
H    1.0125261936622245E+01    7.6972651388059292E+00    6.4508008035740092E+00
H    1.0499882480553648E+01    9.1992905673856544E+00    6.1555510652606129E+00
H    3.4970438967312165E+00    3.9586491104198904E+00    2.1122397671540609E+00
H    4.0583866165584803E+00    4.5845492847974452E+00    7.4299433254027136E-01
H    7.3547019310356720E+00    9.3907165959529841E+00    1.2034560547161128E+01
H    7.3341204126244337E+00    7.7711803058269870E+00    1.2054181675347211E+01
H    7.8271359122353683E+00    1.0161864557797063E+01    5.7814824441731565E+00
H    7.7120973949995379E+00    9.5091968613051812E+00    7.2843865451268783E+00
H    5.2900515914212614E+00    6.4890676352474319E+00    6.3929667695952626E+00
H    4.8679125606969889E+00    6.3175498760842084E+00    4.8312977475730943E+00
H    1.1521813479056455E+01    2.1923134294363149E+00    4.2496119720282035E+00
H    1.1222779192576969E+01    7.8413521722477719E-01    4.7830452887771377E+00
H    8.8119906724499213E+00    9.6778997188628804E+00    3.9666598404564057E+00
H    9.9342635723546149E+00    1.0814166420179292E+01    3.7816690213248361E+00
H    3.1082412934275045E+00    1.0546280663961859E+01    5.2869156842281528E+00
H    4.3132121960853596E+00    1.1455647024803749E+01    5.0610955611757413E+00
H    4.2219844129781831E-01    7.3045251091105907E+00    3.8013411241078137E+00
H    2.9766507545177601E-01    5.7724531525169542E+00    3.4527167705325295E+00
H    7.5860409191412854E+00    6.5679521129191416E+00    3.2915919983253077E+00
H    6.6758593794493279E+00    5.3831662367035191E+00    2.5200074513622064E+00
H    3.8532901491626119E+00    6.3060011184120066E+00    2.8123839800105541E+00
H    2.7953202289158119E+00    6.5486583544772090E+00    3.9537589710662853E+00
H    5.5553109353382037E+00    8.0120428669699635E+00    8.6584496783238514E+00
H    6.9993998569156624E+00    7.4780307290168100E+00    8.4104207149779793E+00
H    9.5571587465051238E+00    7.3282222377274686E-01    3.0174934412140453E+00
H    8.9237161921951529E+00    1.3434744964861134E-01    4.4076415640866671E+00
H    3.8482518861386303E+00    1.1174452569524592E+01    1.3441132624695964E+00
H    3.9626527205395803E+00    1.0964284064941006E+01    3.0102559476076198E+00
H    5.9449721154891053E+00    7.8892003227194927E+00    2.7995602859866398E+00
H    4.7651318478100926E+00    8.7229145811686486E+00    3.5906365527449124E+00
H    1.0905855590462448E+01    5.5302297929427491E+00    4.9343939976040048E+00
H    9.5033533984921146E+00    4.6732861306339428E+00    4.7170650155462663E+00
H    1.1491935736740601E+01    9.0019296606964598E+00    3.3983882088425843E+00
H    1.1959938005669292E+01    8.7851571773522412E+00    4.9401248591307798E+00
H    2.9404442925204068E+00    1.1333366123652375E+01    7.4880999173577765E+00
H    1.3993361021504893E+00    1.1120249168991567E+01    6.8063795104244358E+00
H    7.2180390176114351E+00    1.2798394447470984E-01    9.7032741476543229E+00
H    7.1646531631430346E+00    1.0771817698135622E-01    1.1367537673088124E+01
H    4.8113494103453780E+00    9.3237233228420173E+00    1.0837722105749609E+01
H    6.0817040348706044E+00    9.8061889870779808E+00    1.0186961890390902E+01
H    1.0565212968845476E+01    6.7306912582546801E+00    1.0314509384118852E+01
H    1.1239212631588941E+01    5.5937306260536195E+00    9.3143955162384060E+00
H    1.2188441116721846E+01    8.9926759698752115E+00    1.0127830375806784E+01
H    1.1415745606507778E+01    8.6329943934295219E+00    8.6365927756284453E+00
     &END COORD
     &VELOCITY
           2.4352895689761737E-04   -1.2005787686793951E-04    8.6437472843052974E-05
           5.1308833496995819E-05   -1.2157267878986854E-06   -1.4102765547968281E-05
          -1.3301557325180258E-04   -8.3933401104443887E-05   -1.7228315507876151E-04
           3.2310035322848313E-04   -2.8975142829587390E-04    2.2821840321545148E-04
           3.6814672511770418E-04   -1.6545926054342745E-04    8.2260305157132855E-05
           8.6833533914863927E-05   -1.6730042257743303E-04    2.3230467887989017E-04
          -1.9151490594513889E-04    3.6505951846671629E-05    1.7677888658517295E-04
          -2.7334923677278767E-04   -2.0364577276941320E-06   -2.5180936275435919E-04
          -2.9104530009450548E-04    1.4206649360486525E-04   -9.4225803956847221E-05
           4.9611736872588239E-05    1.9755004721342886E-04   -3.9672360393181060E-05
          -1.0339976255278173E-04    2.5535991311224319E-04   -1.7751224400472745E-04
           1.2391364052880035E-04   -5.1653553927211549E-05    2.4858753532740088E-04
           3.7151260902029070E-05    1.3910103950710704E-04   -2.6002426241764602E-04
          -9.0568511029716730E-05   -5.4222395370408962E-05    1.3572623090208559E-04
          -1.3545521085624174E-05    2.9306779465245245E-04   -1.1045795169738538E-04
           3.4361721982949196E-04    1.2593016463877549E-04    1.2983789202280428E-04
           3.1082499004090901E-05   -2.1485637728402846E-04    1.3648810971786509E-04
          -1.1186997158985769E-04    8.8655851502183498E-05    8.1590272416990939E-05
           7.2533933878606599E-05   -7.4819315189143411E-05   -3.7629488888980299E-05
          -3.9322988574929451E-05    7.7713369530775004E-05   -4.9484602597850236E-05
           1.3057379766159927E-04    3.2998964297726831E-05    2.3389866014289479E-04
          -2.3509358637240302E-04   -1.3034774433815760E-04   -7.8879784829627883E-05
           2.2663974882072810E-04    3.8940882890911855E-06   -1.0672780451672290E-04
          -4.8905242918525680E-04   -8.8291554419200029E-05    4.1273297091721486E-05
          -2.3517177964271465E-04    3.0047635156076577E-05   -4.3285500883704897E-05
           2.3871849795330960E-04    1.6484647710442309E-04   -6.5701800575499270E-06
           2.1756702614161132E-06   -3.6685136593932741E-04    1.9083731501131065E-05
           1.5263277743795249E-04   -4.5406823835296394E-05   -4.7850620499948987E-05
          -2.4366711287567599E-04   -1.5793106100430891E-04    1.4697438563651729E-04
          -4.6380813505860115E-05    6.7005925797143808E-05   -1.4094312562522152E-04
           7.0386578673489701E-05    1.4790076784449265E-04    2.3286433602925366E-04
          -1.0544099119120818E-04    9.0971533134109973E-05    1.4244526952010407E-04
           3.9446322296829564E-04    6.7569172819739899E-05    1.1084316707415647E-04
          -7.7542156657940022E-05   -1.2551164720868925E-04   -1.9898819772627986E-04
           4.0834979217809446E-04    1.4764967627207008E-04    2.0705283491202853E-05
          -2.3057413576361191E-04   -1.2071393189660834E-04    1.1534324681671317E-04
          -2.2445140569540270E-04    3.2516286912529912E-04   -1.1004648482213167E-04
          -2.5249548994336284E-05    3.9104765548179048E-04    1.6361307451919714E-04
           2.2783467789637303E-05   -6.3114575280832664E-06    4.4689206318389807E-05
          -2.2749371826769543E-04   -7.0059699222480861E-06    6.3814403816928812E-05
          -7.5853164186574974E-05    8.7002441536472103E-05   -2.6945242200139996E-04
          -1.5174645296417137E-04   -1.6488710611739654E-04   -8.8599937395384022E-05
           8.3186202726693874E-06   -5.3104079059409029E-05   -7.5058533110985504E-05
           6.6500165506787830E-05    1.1873974520036138E-04   -1.6876577035701234E-04
          -3.6861210826463287E-04   -4.4905138593291443E-04   -7.2135058686609486E-05
          -1.2506938727261627E-04   -2.1650974605777639E-04    1.4245782353516267E-05
           1.5305853253036431E-04    7.8061367150467930E-05   -2.6041680607641771E-04
           1.1603170847621187E-04    1.3154101218246591E-04    1.9734889967696575E-05
          -2.7566410321317085E-05    4.9188391053102481E-05   -8.2861079403432334E-05
           1.7539773471535015E-04   -1.0194492078739055E-04   -1.5958541296025915E-05
           9.1160346888979490E-06   -1.7067102899829393E-04   -1.2704807040615781E-04
           2.0533708583752729E-04   -1.8520865666437730E-04    1.5572511016965999E-04
          -9.5059251453271127E-05    3.8900119903852892E-04    6.8133144196489865E-05
          -3.3406382324768034E-05    1.1411499707583455E-04    4.8377796709722156E-05
          -3.2166174218095444E-04   -6.7429210558635165E-05   -3.3439454031926129E-04
          -1.0567197804898299E-04   -1.8604152118403442E-04   -4.1177966912483859E-05
           3.0232555384664166E-04    4.4482756354150276E-08   -4.0954738013489345E-05
           3.4127138907778809E-04   -7.5686724692341110E-05    3.1369710523375860E-04
           4.8645208040151910E-06    9.5406277061684888E-05    4.0430203566686800E-05
          -7.3487234920355029E-05   -1.1019701265363609E-04   -1.6988167751683911E-04
          -9.5116294348549429E-05    1.5929238980021463E-04    1.0050636564807530E-04
           2.9577452115317444E-04   -2.0295534619188923E-04   -3.8717435446945510E-06
           3.3427097553066784E-05    2.9886113904391214E-05    2.3028601056247753E-05
           2.1249634917539330E-04   -1.8765388695173406E-04   -7.1382764686638556E-05
          -4.5134200614123902E-04   -3.6461998041649313E-05   -6.2014780459460615E-04
           9.6717121607451490E-04   -4.1496771604904788E-04   -1.4275705698015911E-03
           7.4612048411192965E-04    7.4926340799514614E-04   -2.8983563270410905E-05
           1.1950822730788188E-03   -2.4938163771920071E-04   -4.6955699926570169E-04
           3.3437263773453287E-04   -4.4066319731147845E-04   -4.5337897815681406E-04
           1.1011431662392821E-03    2.9139917326815852E-04   -1.2198962736643911E-03
           2.2385249971110832E-04    1.5948609342855008E-03   -3.7881054219671270E-04
           1.0079326383135505E-03   -6.8228660474062123E-04    2.6177285017317227E-04
          -7.1676772171421648E-05    2.5746464897907135E-05   -1.3520750351290163E-04
          -6.5359743159190708E-04   -1.1729133116837846E-04    1.7260386305454156E-04
          -6.3946645532052780E-04   -9.4886603545094386E-04   -2.5714998908849592E-04
          -3.9131100882526759E-04   -2.4416892644763422E-04   -5.0810873229533153E-04
           2.8831271512296658E-04   -2.0448067102069867E-03   -7.4372526402701779E-04
           3.8720872053385729E-04   -1.5659038684762492E-03   -8.1922109567085640E-04
           6.6131192185077208E-04   -2.0572267226825043E-04   -4.7008211594768307E-04
          -4.8840437586906651E-05   -1.4279618006725718E-03    8.4954144524194953E-04
          -5.1075273925231784E-04    9.0001937672739077E-04   -4.3720385364712602E-04
           2.7825781516924191E-04    1.1169167719167753E-04   -5.6938528402025832E-04
          -1.5084824930743617E-03    7.3769946902632220E-04   -6.1844046653373028E-06
           2.4538874923218587E-04    9.7494646952751515E-04   -4.8314180616797908E-04
          -8.5480359466674215E-05    5.9478416171852746E-04   -4.9304901636005536E-05
          -6.8266994505909360E-04   -5.5575566575014697E-04    7.1333097088958648E-04
           4.9456847777422098E-05    6.5025459335011672E-04   -7.7972174813187973E-04
           7.9382955316272344E-05   -7.8198264146332199E-04    7.2595378948182680E-04
           2.5852131570115288E-04    7.5469391166064158E-05   -5.8533339038970185E-04
           3.2409077359270478E-04   -2.7317136237507993E-04    2.5330976797456752E-04
          -1.0540506164918254E-03    5.0562455740652576E-04    7.1097587663763453E-04
           8.0546734662555641E-04   -1.4475933299113911E-04   -9.1148946840386455E-04
          -9.4447429201642270E-05   -1.7442565229128660E-04   -6.6682127829350765E-04
          -5.9604062243134642E-04    2.1026825326379839E-03   -1.6362959700810226E-04
          -5.9396099202568191E-04   -1.8326838203601168E-04   -3.0896384759141013E-04
          -1.1277145425693065E-04   -1.9670835968909700E-04    5.4210691563416982E-04
           3.7332633878951456E-04   -2.2247370329597047E-04   -3.6283756805756553E-04
          -5.2077706488786834E-04    8.9077612568326352E-04   -5.6184164068745750E-04
           6.7815751255910278E-04    1.3444514439594444E-04   -5.4935154403484626E-04
          -5.1310271401189671E-05   -7.8829554703874606E-04    5.3276039724282106E-04
          -8.5130409003772277E-05   -4.3984632745196065E-04   -1.5059866460106024E-03
           1.9680255627633515E-04    7.0602917217818442E-04    7.9813152563858007E-04
          -3.1120886792798631E-04    7.4703220924694335E-04    4.9930464952407374E-04
          -7.7046114692454757E-04    8.8060124139187942E-04    4.4946245364821391E-04
           4.7827412322463210E-04    2.0967831427690033E-04    9.9045583190958669E-04
           2.7338768314540531E-04   -1.2911505096445391E-05    2.0308294566651762E-03
           2.2268144216044974E-04    4.5671096290646413E-04    2.0294438627026399E-03
          -1.3963762680768685E-04    6.4107067981997959E-04    2.3590679284380355E-04
           1.0627265607020156E-03   -8.1441755638334749E-04    2.5570925291478391E-04
           5.5752905184442488E-04   -2.4904265434636137E-04    1.0092943120081470E-03
           8.2308722579980281E-04    4.6317561234809234E-04    1.0881531478816174E-03
           1.0550329244354726E-03    1.4718671462260009E-03   -1.9479088051730812E-04
          -5.9234975152507854E-04    1.4349114685495914E-03   -1.0527038082677987E-03
           1.6932613075294398E-04   -2.7170861877251072E-04   -1.8216829138043231E-04
          -3.9770868215750733E-04    1.1372230153320131E-03    1.5121550510228463E-04
          -2.1017769408698846E-04    2.5917097131058288E-04    1.2964206860185403E-03
           5.7060427920208588E-04    4.3671541263705333E-04   -1.4660693894392955E-04
           2.7365554736358190E-04   -1.1051173482174065E-04   -2.7041350585863048E-04
          -1.5490310923860658E-03   -4.8289839359799913E-04    1.0665735172139274E-03
           1.1224150504462113E-04    6.1359106771315824E-04   -2.4338314528369370E-04
          -8.4574512528061343E-04    2.7257287515185854E-04    4.4909119714492879E-04
          -9.0308194375733272E-04    4.6440059127768638E-04   -2.6541928311867453E-04
          -1.1903653561410497E-03    3.2337940587981958E-05   -5.5038916000160675E-05
           2.6854808173746176E-04   -1.1020380157687724E-03    6.7777744830617795E-04
           3.1913849412880694E-04    1.0174460215344714E-03   -3.0838829166043765E-04
          -4.2287091606476668E-04    4.3945863776459677E-04   -8.2903290422600879E-04
           4.5796851367186508E-04   -7.2851844241701475E-04   -1.9906514358830469E-04
          -2.5421516948709278E-04   -2.9861670766775190E-04    4.0880986581331882E-04
          -1.7312719899567109E-04    6.5870510361681791E-04    1.2668576802647052E-03
           2.5583564443869516E-04   -7.9678978560721107E-07    1.1677936184207843E-03
          -1.5491526839030983E-05    1.3159291771835248E-03    1.0400222974266675E-03
           8.9575808405040745E-04   -3.3563207831990800E-04    5.8434047540759223E-04
           1.0485189083708551E-03    1.4354236887749401E-04   -1.3233266899033693E-03
          -7.1283458299967585E-04    3.7647186490379460E-04   -7.8163815422751810E-04
          -5.0191624994371084E-05    2.0915573578033911E-05   -3.3662881984589696E-04