 # Version information for this restart file 
 # current date 2023-07-31 10:47:22.528
 # current working dir /mnt/lustre/indy2lfs/work/tc047/tc047/mrnuff-cirrus/cp2k/nuff-benchmarks/H2O-64-32node
 # Program compiled at                              Thu Jun 30 12:29:55 BST 2022
 # Program compiled on                                             cirrus-login3
 # Program compiled for                                             Cirrus-intel
 # Source code revision number                                       git:e635599
 &GLOBAL
   PRINT_LEVEL  LOW
   PROJECT_NAME H2O-64
   RUN_TYPE  MD
 &END GLOBAL
 &MOTION
   &MD
     ENSEMBLE  NVE
     STEPS  10
     TIMESTEP     4.9999999999999994E-01
     STEP_START_VAL  10
     TIME_START_VAL     4.9999999999999982E+00
     ECONS_START_VAL    -1.1007588181098811E+03
     TEMPERATURE     3.0000000000000000E+02
     &AVERAGES  T
       &RESTART_AVERAGES
         ITIMES_START  1
         AVECPU     2.9550840852782132E+00
         AVEHUGONIOT     0.0000000000000000E+00
         AVETEMP_BARO     0.0000000000000000E+00
         AVEPOT    -1.1010668160173032E+03
         AVEKIN     3.0070034549320290E-01
         AVETEMP     3.3142598855989445E+02
         AVEKIN_QM     0.0000000000000000E+00
         AVETEMP_QM     0.0000000000000000E+00
         AVEVOL     1.2909542132085598E+04
         AVECELL_A     2.3458682268415796E+01
         AVECELL_B     2.3458682268415796E+01
         AVECELL_C     2.3458682268415796E+01
         AVEALPHA     9.0000000000000000E+01
         AVEBETA     9.0000000000000000E+01
         AVEGAMMA     9.0000000000000000E+01
         AVE_ECONS    -1.0896373038493868E+01
         AVE_PRESS     0.0000000000000000E+00
         AVE_PXX     0.0000000000000000E+00
       &END RESTART_AVERAGES
     &END AVERAGES
   &END MD
 &END MOTION
 &FORCE_EVAL
   METHOD  QS
   &DFT
     BASIS_SET_FILE_NAME GTH_BASIS_SETS
     POTENTIAL_FILE_NAME POTENTIAL
     &SCF
       SCF_GUESS  ATOMIC
       &OT  T
         MINIMIZER  DIIS
       &END OT
       &PRINT
         &RESTART  OFF
         &END RESTART
       &END PRINT
     &END SCF
     &QS
       EPS_DEFAULT     9.9999999999999998E-13
       EXTRAPOLATION  PS
       EXTRAPOLATION_ORDER  3
     &END QS
     &MGRID
       CUTOFF     2.8000000000000000E+02
       REL_CUTOFF     3.0000000000000000E+01
     &END MGRID
     &XC
       DENSITY_CUTOFF     1.0000000000000000E-10
       GRADIENT_CUTOFF     1.0000000000000000E-10
       TAU_CUTOFF     1.0000000000000000E-10
       &XC_FUNCTIONAL  NO_SHORTCUT
         &PADE  T
         &END PADE
       &END XC_FUNCTIONAL
     &END XC
   &END DFT
   &SUBSYS
     &CELL
       A     1.2413800000000002E+01    0.0000000000000000E+00    0.0000000000000000E+00
       B     0.0000000000000000E+00    1.2413800000000002E+01    0.0000000000000000E+00
       C     0.0000000000000000E+00    0.0000000000000000E+00    1.2413800000000002E+01
       MULTIPLE_UNIT_CELL  1 1 1
     &END CELL
     &COORD
O    1.2265692089484169E+01    1.3554390129941438E+00    1.0875425741210453E+01
O    6.4523125712782887E+00    3.7059030017229588E+00    8.6472703373292354E+00
O    7.7679434805480174E-02    2.1684363409617506E+00    8.2608499727948850E+00
O    1.2086328917682222E+01    2.6383236471457572E+00    2.1708319631148334E+00
O    1.2290563434792510E+01    4.1705987030845240E+00    1.2102197401501025E+01
O    7.2035546534508530E+00    9.4146440982934021E-01    4.7596753308529376E+00
O    8.3332259924711032E+00    7.2077559238207938E+00    4.6827252174468992E+00
O    1.2331820354972921E+01    1.1521085584601192E+01    8.0815267568455340E+00
O    3.2742305248729462E+00    4.4591006237002171E+00    9.1745323461747645E+00
O    2.8601657947011727E+00    3.7871321994318654E+00    6.5410904120532596E+00
O    1.3797135980522106E+00    6.3917883108530074E+00    5.6509499049343204E-01
O    1.8717778176467907E+00    8.6859327223319571E+00    2.0908475002934237E+00
O    3.7724126920716210E+00    1.2107291686118604E+01    8.6205990989001222E+00
O    6.4253612010426338E+00    3.6667844669336458E+00    2.7875787966085936E+00
O    1.9996801569167115E+00    1.8525818618606413E+00    4.8671305057775855E+00
O    8.2870264289442694E+00    2.4221945186201510E+00    6.9417301194041938E+00
O    5.7524965525742777E+00    3.3354063225407842E+00    1.2486444073906720E+01
O    1.1313041873264199E+01    5.6568394091370724E+00    2.2481538681309461E+00
O    4.2889086332745610E+00    2.1146774663676982E+00    1.0586400462686802E+01
O    5.3988008779579317E+00    3.3584215761666583E+00    5.4859980676066726E+00
O    6.5093803283316536E+00    1.1870555907452571E+01    7.1448610258291156E-01
O    3.2525927590516739E+00    2.3434818290721342E+00    2.4132514479859397E+00
O    8.0086796499285615E+00    6.3565335203087523E+00    7.4977752039611163E+00
O    5.9288585788257286E+00    6.5082801666042931E+00    1.2195796701642532E+01
O    1.0610385294795661E+01    1.1861264429738663E+01    1.2200574174939906E+01
O    9.3403690756569091E+00    3.6890996107165051E+00    3.5273423653475002E+00
O    1.1111278086579024E+00    5.7890355206452142E+00    6.6473009501981686E+00
O    8.0194995343334661E+00    3.3269739508472997E+00    1.0869758841489817E+01
O    1.2376084676796218E+01    9.6748049821028470E+00    1.1772442429127491E+01
O    4.2098962719504174E+00    7.0914037241391386E+00    8.1403049780540560E+00
O    3.7839656891275233E+00    8.2290488153630115E+00    1.1585038748792572E+01
O    1.1076296436002844E+01    4.5429033328726014E+00    7.8327522122958024E+00
O    1.0435269965490434E+01    8.4217711221835359E+00    1.0328413587523599E+00
O    1.9828015281273133E+00    6.4005825276164252E+00    1.0353823655978511E+01
O    4.7041682767468611E+00    5.6227133611205937E-01    5.6097237226911210E+00
O    8.7178718108892745E+00    1.2242115811187322E+01    8.0976567639232293E+00
O    2.6327341025094873E+00    1.0520521873272747E+01    8.2905623926749383E-02
O    7.2399931187466118E+00    1.0511642196931723E+01    4.2432664330030221E+00
O    2.2807064781619277E+00    2.7612056427333859E-01    1.0807250569989206E+01
O    8.8632061138829137E+00    9.4642072500214669E-01    1.3400856795972096E+00
O    1.9443088048743231E+00    8.0893935868695088E+00    7.5355059867712306E+00
O    9.6598248299587635E+00    8.0355046451627210E+00    9.8565400345211085E+00
O    1.0903669851584361E+01    8.3307153998976524E+00    6.4773146916028095E+00
O    3.5124567442238006E+00    4.8693650210822330E+00    1.5451764009707427E+00
O    7.9775830453591325E+00    8.6026723333304389E+00    1.2050849513770340E+01
O    8.3694035479504318E+00    1.0019371052443084E+01    6.6836141760227017E+00
O    5.6546743218578541E+00    6.0810664230946303E+00    5.5283846573827713E+00
O    1.1742547847645332E+01    1.6241840639034109E+00    5.0859575162073059E+00
O    9.7585719615143631E+00    9.8110347715519417E+00    3.5364867774940771E+00
O    3.9627876574399776E+00    1.0548914651573968E+01    4.6848634346389106E+00
O    9.0110847254973692E-01    6.3699180308686154E+00    4.0614677068442671E+00
O    6.8825857356122286E+00    6.4084220847944708E+00    2.5046902581440822E+00
O    3.8180799995399028E+00    6.6391276583280705E+00    3.7786506828597308E+00
O    6.5639457974901481E+00    8.3081696931558042E+00    8.8142644496198042E+00
O    9.7792965800928204E+00    1.3440562766334685E-01    3.8518038249085311E+00
O    4.1040770115657361E+00    1.1645978558721380E+01    2.2167390496173938E+00
O    5.3225394392112459E+00    8.7370879819812082E+00    2.7520568939068588E+00
O    1.0008064086737264E+01    5.3735087324372950E+00    5.3757728940149487E+00
O    1.2260297782908820E+01    8.6464340629358603E+00    3.9709777917871101E+00
O    2.3431345497116922E+00    1.0747243885368519E+01    6.8128217267251694E+00
O    7.0016612916653935E+00    6.6240597665994227E-01    1.0534341561687869E+01
O    5.1725047982212979E+00    1.0218495319125196E+01    1.0357205957141273E+01
O    1.1186316801594364E+01    5.8851524495734955E+00    1.0299193203865951E+01
O    1.2277001782589720E+01    8.9569716794261929E+00    9.0707884188586778E+00
H    1.2357840653884079E+01    2.3335995753228627E+00    1.1187202568866075E+01
H    1.1946181003855310E+01    1.5338243304138539E+00    9.8820686313885293E+00
H    5.5871540557006991E+00    3.4492983737414238E+00    9.0442905792552892E+00
H    6.8930493554878245E+00    3.0239782285792680E+00    7.9852283560208939E+00
H   -1.4374297116929841E-01    1.5098214846057953E+00    7.5263531243331840E+00
H   -3.8865416711555012E-01    3.0530974755007820E+00    7.9298823362654609E+00
H    1.2176354233154285E+01    2.9746344065074410E+00    1.1924463434416706E+00
H    1.2991627169715327E+01    2.9143170210543596E+00    2.5155346727346148E+00
H    1.1517585159653539E+01    4.3255122446511862E+00    1.1434691026735360E+01
H    1.2784953658522468E+01    5.0635466714142385E+00    1.2040055000816162E+01
H    6.9671401310531387E+00    1.7387343976985483E+00    4.1849967664916328E+00
H    6.2296009063341087E+00    6.8946782722608646E-01    5.1579113656944742E+00
H    7.7273594948727613E+00    7.2216808380987114E+00    5.4888761780279749E+00
H    9.1691701765462206E+00    6.6296086344979814E+00    4.9460727574876033E+00
H    1.2846883768257227E+01    1.1781070688350718E+01    8.9005192602386742E+00
H    1.1983330930254894E+01    1.0563456761595928E+01    8.3168613221536756E+00
H    3.5249173108185508E+00    3.8402074967249415E+00    9.9510006399907187E+00
H    2.4297337650178350E+00    4.9330989925197128E+00    9.5245628999129259E+00
H    2.1731627523297661E+00    4.5583640086443253E+00    6.3013579985289043E+00
H    2.8563500932214305E+00    3.8576048156118898E+00    7.5841394106044442E+00
H    1.1402120515028134E+00    7.1967347480537667E+00    1.1594244541627743E+00
H    2.2451038169247757E+00    6.0044688738680456E+00    1.0028737587412229E+00
H    2.8159635337993287E+00    8.9701748198788476E+00    2.2995199891606197E+00
H    1.3289544665066242E+00    8.9939926467770270E+00    2.8983257079441844E+00
H    4.4550218369063375E+00    1.1540339425003761E+01    9.1644203320316020E+00
H    3.0505860859907670E+00    1.2474023132570281E+01    9.2862357274709719E+00
H    5.8591510063951731E+00    3.4580809397754844E+00    3.6616773633303743E+00
H    5.8328342793246808E+00    3.4003555439698574E+00    1.9823495664216826E+00
H    9.5573469725951032E-01    1.6451477306434414E+00    4.8407733836338380E+00
H    2.2282991647310526E+00    2.4813299829878335E+00    5.6872650230025155E+00
H    8.4431290012367164E+00    1.6050270153558390E+00    7.5442513472482293E+00
H    8.0660702671737212E+00    2.0137128293838913E+00    6.0338191030229176E+00
H    5.2179579256216924E+00    2.8944435585804040E+00    1.1676379626020566E+01
H    6.6808372388709154E+00    3.4137338960716725E+00    1.1974227321955043E+01
H    1.0787628803145417E+01    6.5181395670625903E+00    2.0987991922630598E+00
H    1.1679773573100722E+01    5.3602522151471055E+00    1.3423877172506899E+00
H    3.4353203684188012E+00    1.5422281194349658E+00    1.0899348788955125E+01
H    4.8360131199375589E+00    1.4266306188291382E+00    1.0089887937303411E+01
H    4.3860802582003400E+00    3.3639520802573974E+00    5.6883523933776621E+00
H    5.6851424648156916E+00    4.3694414775810548E+00    5.5473743673646103E+00
H    6.2905172776219231E+00    1.1824099733749327E+01    1.7188529435631721E+00
H    5.6254822935024826E+00    1.2118652077615643E+01    3.2827489265258097E-01
H    3.5448338646077535E+00    1.3905272139795302E+00    2.1815170599101612E+00
H    2.6082617908449617E+00    2.2011793681997758E+00    3.2448585926828932E+00
H    7.1214310944131860E+00    5.8746986475786986E+00    7.5240902705268331E+00
H    8.6555160452206952E+00    5.7349833608738754E+00    7.0296645633642463E+00
H    6.0004465275663161E+00    5.6511979030147659E+00    1.1673025686979354E+01
H    6.2576534574149409E+00    6.3249880564330274E+00    1.3168261180251903E+01
H    1.1110393485507981E+01    1.2636559250997484E+01    1.1695509562619579E+01
H    1.0264574453193097E+01    1.2297166054266723E+01    1.3044673119309776E+01
H    9.9063257583761111E+00    4.0523254539290710E+00    2.7328096710812519E+00
H    8.5320976562305937E+00    3.4662435851510813E+00    2.9418258347995323E+00
H    1.4549325922356930E+00    6.6684406032658758E+00    7.1063381287429728E+00
H    1.0013233336707090E+00    6.1758231958592296E+00    5.6553319488925222E+00
H    7.9834584102615143E+00    3.6965662970353019E+00    9.9295362401112222E+00
H    8.0702893407907155E+00    2.3148727995365044E+00    1.0750118168091133E+01
H    1.1741851247337815E+01    1.0457041172522537E+01    1.2099135806994438E+01
H    1.2145140467198740E+01    8.9346530857760040E+00    1.2412210742862918E+01
H    3.3373535314763756E+00    7.6121200308664543E+00    7.8531045761946103E+00
H    3.8438071109323038E+00    6.2417161568834603E+00    8.6114175129820563E+00
H    3.1132077807644194E+00    7.6196920981174925E+00    1.1070308623800308E+01
H    4.4752997918978883E+00    7.6309327249727108E+00    1.2076616644959014E+01
H    1.1595109347939076E+01    4.9846383472197573E+00    7.0588447442730837E+00
H    1.0300198428128752E+01    4.1359917521744078E+00    7.3179795841163280E+00
H    1.0066803629045404E+01    8.9449101926882566E+00    1.8648409458421134E+00
H    9.5721275817989273E+00    8.2654871620117660E+00    4.9820470823261620E-01
H    1.3188214514385459E+00    6.6901027276290739E+00    9.6503048603166732E+00
H    1.4021624816964486E+00    6.4512365186867120E+00    1.1227722789147622E+01
H    4.1225373888743686E+00    1.3301382656583269E+00    5.2661059713500675E+00
H    4.6863100279909879E+00    6.4323888153921327E-01    6.6181558656213291E+00
H    9.4703533710558432E+00    1.2334177792059657E+01    8.7409520154270641E+00
H    8.8486737260990580E+00    1.1353175343936490E+01    7.5414016813711937E+00
H    1.7346635260613186E+00    1.0023247752457436E+01    1.4531246290774899E-01
H    3.3374323737189457E+00    9.8445600332827645E+00   -2.3573946363467516E-01
H    7.0505799823410831E+00    1.1506005604268324E+01    4.1255571139609408E+00
H    6.4716019298292631E+00    9.9354966266944142E+00    3.7910911532785780E+00
H    1.3268589592363451E+00    5.8377393430163549E-01    1.1128929736799069E+01
H    2.5223619020799553E+00   -5.4513600115448868E-01    1.1460522258350430E+01
H    8.7695024945574005E+00    1.8730405160136763E+00    9.9029984538927918E-01
H    8.0908940305267727E+00    3.3984351975169269E-01    9.9164118000049928E-01
H    1.1203607709239893E+00    8.3716512006963661E+00    8.1792323344821476E+00
H    2.0883187077771219E+00    8.9941496096239781E+00    7.0138877035401768E+00
H    8.9092455661178729E+00    7.7938840102056028E+00    9.2222118549472913E+00
H    9.0650442925879524E+00    8.4492400512119907E+00    1.0614283870982163E+01
H    1.0125293357176265E+01    7.6972294325256483E+00    6.4507709233862780E+00
H    1.0499855152537284E+01    9.1992705817143801E+00    6.1555311709831795E+00
H    3.4971231604228836E+00    3.9586904012084170E+00    2.1122844778209471E+00
H    4.0584146620665482E+00    4.5845739999386490E+00    7.4299547661177778E-01
H    7.3547300979716610E+00    9.3907717765822429E+00    1.2034662471094506E+01
H    7.3341917810683492E+00    7.7711469163734090E+00    1.2054219542750065E+01
H    7.8271815569081946E+00    1.0161811172290550E+01    5.7814619639484635E+00
H    7.7120113817882885E+00    9.5092512996365084E+00    7.2843726304680176E+00
H    5.2899463871874017E+00    6.4889429596070025E+00    6.3929757321026095E+00
H    4.8678252868830345E+00    6.3175211180854385E+00    4.8313586361440759E+00
H    1.1521862541305277E+01    2.1923283626801044E+00    4.2496614328180478E+00
H    1.1222791846957392E+01    7.8414795598401721E-01    4.7829538343865954E+00
H    8.8119942350209790E+00    9.6778779613706494E+00    3.9666686831532090E+00
H    9.9342844970880968E+00    1.0814156988790350E+01    3.7816372858607203E+00
H    3.1082289528958280E+00    1.0546326407174105E+01    5.2868803913858224E+00
H    4.3132584907107248E+00    1.1455620653057608E+01    5.0610780320736692E+00
H    4.2220406784279729E-01    7.3045102192445244E+00    3.8013135649936891E+00
H    2.9772343931224016E-01    5.7724401932039191E+00    3.4526995513602490E+00
H    7.5860591209731849E+00    6.5678847601543957E+00    3.2915836809342918E+00
H    6.6758385347277889E+00    5.3831754309179809E+00    2.5200133494033210E+00
H    3.8532534172200212E+00    6.3060046348701304E+00    2.8123783749704430E+00
H    2.7953246440737640E+00    6.5485847389780956E+00    3.9537741358612211E+00
H    5.5553176437612040E+00    8.0120599991635775E+00    8.6583941104705762E+00
H    6.9993930795494617E+00    7.4780238970676125E+00    8.4104344163928619E+00
H    9.5571588990613563E+00    7.3280446145750566E-01    3.0174818797266791E+00
H    8.9237164310791890E+00    1.3437510586241819E-01    4.4076447871974578E+00
H    3.8482457315689116E+00    1.1174438455170668E+01    1.3441470566656151E+00
H    3.9626056228590332E+00    1.0964278466897090E+01    3.0102551897948424E+00
H    5.9449661422370790E+00    7.8891857853086540E+00    2.7995741535962306E+00
H    4.7652120121295836E+00    8.7229381074890213E+00    3.5906717261652168E+00
H    1.0905815782848739E+01    5.5302201800695752E+00    4.9342869455825804E+00
H    9.5033245323306872E+00    4.6732708376728533E+00    4.7171193166489624E+00
H    1.1491942104116767E+01    9.0018887406796395E+00    3.3983649908374121E+00
H    1.1959903629040690E+01    8.7851547644291870E+00    4.9401026898662748E+00
H    2.9404439844277257E+00    1.1333326721639086E+01    7.4881123877727749E+00
H    1.3993518978819945E+00    1.1120275827042946E+01    6.8063456551223549E+00
H    7.2181951384375269E+00    1.2809608485352489E-01    9.7032371258680339E+00
H    7.1648660378588112E+00    1.0772078745165416E-01    1.1367500988399856E+01
H    4.8113412051059630E+00    9.3237474535605163E+00    1.0837702423612008E+01
H    6.0816481698037661E+00    9.8060697913096639E+00    1.0186927365163408E+01
H    1.0565212262639349E+01    6.7306908548565652E+00    1.0314443980527619E+01
H    1.1239043366237862E+01    5.5938377372085180E+00    9.3143651163975285E+00
H    1.2188456954751423E+01    8.9927460848973428E+00    1.0127821223536394E+01
H    1.1415764242459263E+01    8.6329965781007836E+00    8.6365688433568550E+00
     &END COORD
     &VELOCITY
           2.4353373553374853E-04   -1.2006097602650578E-04    8.6380096427222296E-05
           5.1311970178933695E-05   -1.2708266207565319E-06   -1.4048482609199045E-05
          -1.3298767757276102E-04   -8.3910828185074191E-05   -1.7227772179648990E-04
           3.2311111387319668E-04   -2.8974228281113731E-04    2.2815855771204650E-04
           3.6807112799785687E-04   -1.6540691871872110E-04    8.2168021722700099E-05
           8.6843810078472016E-05   -1.6733145785072158E-04    2.3233906169615765E-04
          -1.9144732815473328E-04    3.6490306371848191E-05    1.7692428816637332E-04
          -2.7339212137082860E-04   -2.0181330311487486E-06   -2.5185283188660295E-04
          -2.9114797156478594E-04    1.4202524656916921E-04   -9.4207613532835120E-05
           4.9604684382455717E-05    1.9764986075571783E-04   -3.9675655900875749E-05
          -1.0338266296014844E-04    2.5533554886955618E-04   -1.7753567723077554E-04
           1.2393271803186678E-04   -5.1522817963438104E-05    2.4869105054687679E-04
           3.7171385612113286E-05    1.3912087635299555E-04   -2.6001104941529731E-04
          -9.0584380441003054E-05   -5.4256969622472337E-05    1.3571849163709272E-04
          -1.3532069034638661E-05    2.9312535024564687E-04   -1.1035216194558067E-04
           3.4365663856451145E-04    1.2592891247442344E-04    1.2984947778550321E-04
           3.1061310688278028E-05   -2.1491061234511891E-04    1.3642911352113577E-04
          -1.1197980598568494E-04    8.8708519144480990E-05    8.1551359029524934E-05
           7.2553977151378375E-05   -7.4882564048885187E-05   -3.7593240429188017E-05
          -3.9311008768560419E-05    7.7794970774725249E-05   -4.9503853882996886E-05
           1.3050850736255357E-04    3.2997372840364481E-05    2.3384938882192120E-04
          -2.3506710107536641E-04   -1.3038351983351570E-04   -7.8872779761207575E-05
           2.2656471395984294E-04    3.8984618356096280E-06   -1.0674489559781038E-04
          -4.8910812396594865E-04   -8.8250996373811979E-05    4.1168871693833729E-05
          -2.3516505104483287E-04    3.0141522877305040E-05   -4.3307021529343918E-05
           2.3874077440328540E-04    1.6479626533185145E-04   -6.5961174423655072E-06
           2.1570400449526942E-06   -3.6687604474024106E-04    1.9056449024303378E-05
           1.5263290745815095E-04   -4.5423683353580233E-05   -4.7828240980684575E-05
          -2.4361660474250232E-04   -1.5799538490362432E-04    1.4701044899662139E-04
          -4.6332302278774924E-05    6.6958418739707125E-05   -1.4093723621037301E-04
           7.0402526348785284E-05    1.4787938508706693E-04    2.3294646136511925E-04
          -1.0541845847180133E-04    9.0959878373177383E-05    1.4239486316774204E-04
           3.9447066267466027E-04    6.7697585284145801E-05    1.1078543440072911E-04
          -7.7642050400152042E-05   -1.2536442818324362E-04   -1.9896428319881530E-04
           4.0834731830744560E-04    1.4767279244995774E-04    2.0697580190799709E-05
          -2.3059415805106993E-04   -1.2069261926318572E-04    1.1528847271911087E-04
          -2.2453224222981165E-04    3.2508315209937562E-04   -1.1011175869230908E-04
          -2.5223464561343732E-05    3.9102949516982061E-04    1.6353834116227800E-04
           2.2717843314333895E-05   -6.2765751651879615E-06    4.4671040026748503E-05
          -2.2749659830956876E-04   -6.9576305497406285E-06    6.3788388337610380E-05
          -7.5841302719886303E-05    8.7087799013215171E-05   -2.6939094015291081E-04
          -1.5166914071956250E-04   -1.6482446184456747E-04   -8.8619423400863957E-05
           8.3255811677574824E-06   -5.3065384630523375E-05   -7.5044278376266220E-05
           6.6403553283798654E-05    1.1865592146542608E-04   -1.6876922794231391E-04
          -3.6854176965847140E-04   -4.4916679521478744E-04   -7.2212204725803536E-05
          -1.2514834926197996E-04   -2.1658705550464734E-04    1.4279407553375147E-05
           1.5301292386631307E-04    7.8212466738329181E-05   -2.6042789655664005E-04
           1.1597437780898668E-04    1.3153166326547447E-04    1.9714489345635490E-05
          -2.7586288467337636E-05    4.9135802991406749E-05   -8.2847135185832690E-05
           1.7533037836804725E-04   -1.0200057778689127E-04   -1.5955910871318190E-05
           9.1305293488890011E-06   -1.7063363096290297E-04   -1.2704533408493384E-04
           2.0532414020167701E-04   -1.8523108331149307E-04    1.5576953260091559E-04
          -9.5082342048042771E-05    3.8898283928859041E-04    6.8143354602109803E-05
          -3.3468517681976366E-05    1.1413973594180848E-04    4.8372670608699421E-05
          -3.2167308794000605E-04   -6.7373694362605506E-05   -3.3440505798191215E-04
          -1.0565699375524685E-04   -1.8612919959420327E-04   -4.1185047195556334E-05
           3.0227443463881756E-04   -1.9476821472459806E-08   -4.0898192669794053E-05
           3.4132859751095538E-04   -7.5666618759099259E-05    3.1369871723565645E-04
           4.8774504477224257E-06    9.5432986766369763E-05    4.0463993791256443E-05
          -7.3525642130942520E-05   -1.1023344657538457E-04   -1.6990266178601329E-04
          -9.5305467321142487E-05    1.5924492797727283E-04    1.0050784054820220E-04
           2.9577992716662622E-04   -2.0302338272457375E-04   -3.8000268548984845E-06
           3.3426751499311878E-05    2.9960856877522917E-05    2.2957098674956739E-05
           2.1247046209854330E-04   -1.8773508816426166E-04   -7.1323934922719356E-05
          -4.5158839413740246E-04   -3.6143060079184801E-05   -6.1976176341820780E-04
           9.6706711087688087E-04   -4.1494673938508925E-04   -1.4270244721889490E-03
           7.4657709738346913E-04    7.4979183340658200E-04   -2.9716006626040955E-05
           1.1944835029822482E-03   -2.4887952169143211E-04   -4.6965328168964611E-04
           3.3415678177542034E-04   -4.4057529885217544E-04   -4.5347033643181565E-04
           1.1012796130015453E-03    2.9083917954768508E-04   -1.2194190254927976E-03
           2.2415342342622704E-04    1.5937251548245790E-03   -3.7781211910884697E-04
           1.0073465758337256E-03   -6.8157982681434179E-04    2.6183752025447227E-04
          -6.9769183585906137E-05    2.4841597101291115E-05   -1.3349984295516531E-04
          -6.5395783736975875E-04   -1.1729839034699388E-04    1.7209949835779071E-04
          -6.3912725034146649E-04   -9.4833908162619926E-04   -2.5753189731865398E-04
          -3.9187509729576224E-04   -2.4417797176887852E-04   -5.0822500047904135E-04
           2.8904185308538404E-04   -2.0455475311530360E-03   -7.4488003305983542E-04
           3.8533435938786884E-04   -1.5649598638816835E-03   -8.1999331590496243E-04
           6.6163782210348194E-04   -2.0530137991875492E-04   -4.7022778536387672E-04
          -4.8571775208504654E-05   -1.4283455067346240E-03    8.4970777265171843E-04
          -5.1040502071909334E-04    9.0124041077107794E-04   -4.3717828656702432E-04
           2.7962496774309488E-04    1.1112791909888915E-04   -5.6980553870498052E-04
          -1.5080494509671432E-03    7.3672779722670203E-04   -5.7541529122861449E-06
           2.4475429621050547E-04    9.7437756643037419E-04   -4.8339679944026353E-04
          -8.5981680080888091E-05    5.9512037267998310E-04   -4.8949501766141503E-05
          -6.8266467565346171E-04   -5.5567223333727279E-04    7.1350489602201592E-04
           4.8033714483686820E-05    6.5011279411900786E-04   -7.7943973949998549E-04
           8.0491911109318700E-05   -7.8343749754213770E-04    7.2435736497541297E-04
           2.5839724570178081E-04    7.5578985197162187E-05   -5.8507007759014463E-04
           3.2468632066351660E-04   -2.7324024725602198E-04    2.5249479694031314E-04
          -1.0539062839276339E-03    5.0616494373675099E-04    7.1049452485996559E-04
           8.0541579377133086E-04   -1.4428395474013183E-04   -9.1111624630558087E-04
          -9.3901405516006348E-05   -1.7440336409776372E-04   -6.6695306718580864E-04
          -5.9667439631337052E-04    2.1020879938527426E-03   -1.6524975842619670E-04
          -5.9413689338749613E-04   -1.8314218672568398E-04   -3.0878549942134782E-04
          -1.1299139622082351E-04   -1.9706794254958899E-04    5.4164798336106502E-04
           3.7379192865974014E-04   -2.2187500988889950E-04   -3.6215118741953736E-04
          -5.2111287108037310E-04    8.9091209793157268E-04   -5.6207250899728599E-04
           6.7919292604393306E-04    1.3343181454720490E-04   -5.4958333089140518E-04
          -5.0955912352602263E-05   -7.8811310900538025E-04    5.3306738437847775E-04
          -8.4615276350136773E-05   -4.3969810879945727E-04   -1.5061331385208172E-03
           1.9621493944389670E-04    7.0658921104584278E-04    7.9834173948504269E-04
          -3.1086266729729356E-04    7.4710976671480431E-04    4.9983161016562588E-04
          -7.7088036734741599E-04    8.7923123998356379E-04    4.4906439901850947E-04
           4.7843808737834255E-04    2.0885304147073475E-04    9.9081078439538974E-04
           2.7383478092323789E-04   -1.2076470161682357E-05    2.0312636572850824E-03
           2.2238602224659951E-04    4.5732113705422843E-04    2.0297495633832723E-03
          -1.3983314820566886E-04    6.4110517558812401E-04    2.3541721875082881E-04
           1.0634351964261914E-03   -8.1406755448852944E-04    2.5592615930266336E-04
           5.5764666824830746E-04   -2.4944020397426469E-04    1.0095491375777608E-03
           8.2355304835909438E-04    4.6265598282460140E-04    1.0873683440520269E-03
           1.0554542732527027E-03    1.4711843503825690E-03   -1.9257994643684595E-04
          -5.9301436637181114E-04    1.4338243179457030E-03   -1.0518598720243532E-03
           1.7009542630750020E-04   -2.7229621441644060E-04   -1.8275874433991516E-04
          -3.9794180045533105E-04    1.1377334676073033E-03    1.5111872074316320E-04
          -2.1010779019558075E-04    2.5908254733860803E-04    1.2965840741181352E-03
           5.7014687398044238E-04    4.3663748723289620E-04   -1.4622705925000019E-04
           2.7451658005921728E-04   -1.1055104188329118E-04   -2.7011911347143069E-04
          -1.5488517943892624E-03   -4.8268639177275808E-04    1.0661735519917092E-03
           1.1223093817827067E-04    6.1336181167199956E-04   -2.4337739021410549E-04
          -8.4642821009182163E-04    2.7314900747882809E-04    4.4966165017873026E-04
          -9.0281864258240851E-04    4.6471968390636843E-04   -2.6632644266279726E-04
          -1.1909602595281509E-03    3.2546725737612119E-05   -5.5177771594256252E-05
           2.6878284877552227E-04   -1.1019214431095745E-03    6.7804196597523578E-04
           3.1926309389608142E-04    1.0177813137634555E-03   -3.0847823993253082E-04
          -4.2284471692075092E-04    4.3959034012319237E-04   -8.2960000477227719E-04
           4.5763012014207499E-04   -7.2873611064597503E-04   -1.9810871956111879E-04
          -2.5435809607829836E-04   -2.9857092394974295E-04    4.0812967129067650E-04
          -1.7369381694389653E-04    6.5701533356189192E-04    1.2674523034366734E-03
           2.5615963332253965E-04   -1.0911306560738238E-06    1.1679000472632239E-03
          -1.6308109833519186E-05    1.3149337651133530E-03    1.0407917756508564E-03
           8.9763869712479894E-04   -3.3652501426765456E-04    5.8254652399234764E-04
           1.0486726919024187E-03    1.4387708623175420E-04   -1.3227328924932766E-03
          -7.1280006662213791E-04    3.7576614693318695E-04   -7.8229807967756236E-04
          -4.9597517525004804E-05    2.0943390439669107E-05   -3.3577883354199417E-04