 # Version information for this restart file 
 # current date 2023-07-31 10:50:22.259
 # current working dir /mnt/lustre/indy2lfs/work/tc047/tc047/mrnuff-cirrus/cp2k/nuff-benchmarks/H2O-64-32node
 # Program compiled at                              Thu Jun 30 12:29:55 BST 2022
 # Program compiled on                                             cirrus-login3
 # Program compiled for                                             Cirrus-intel
 # Source code revision number                                       git:e635599
 &GLOBAL
   PRINT_LEVEL  LOW
   PROJECT_NAME H2O-64
   RUN_TYPE  MD
 &END GLOBAL
 &MOTION
   &MD
     ENSEMBLE  NVE
     STEPS  10
     TIMESTEP     4.9999999999999994E-01
     STEP_START_VAL  10
     TIME_START_VAL     4.9999999999999982E+00
     ECONS_START_VAL    -1.1007588181102535E+03
     TEMPERATURE     3.0000000000000000E+02
     &AVERAGES  T
       &RESTART_AVERAGES
         ITIMES_START  1
         AVECPU     1.8894666078733280E+00
         AVEHUGONIOT     0.0000000000000000E+00
         AVETEMP_BARO     0.0000000000000000E+00
         AVEPOT    -1.1010668160173032E+03
         AVEKIN     3.0070034549325764E-01
         AVETEMP     3.3142598855995482E+02
         AVEKIN_QM     0.0000000000000000E+00
         AVETEMP_QM     0.0000000000000000E+00
         AVEVOL     1.2909542132085598E+04
         AVECELL_A     2.3458682268415796E+01
         AVECELL_B     2.3458682268415796E+01
         AVECELL_C     2.3458682268415796E+01
         AVEALPHA     9.0000000000000000E+01
         AVEBETA     9.0000000000000000E+01
         AVEGAMMA     9.0000000000000000E+01
         AVE_ECONS    -1.0896372487849098E+01
         AVE_PRESS     0.0000000000000000E+00
         AVE_PXX     0.0000000000000000E+00
       &END RESTART_AVERAGES
     &END AVERAGES
   &END MD
 &END MOTION
 &FORCE_EVAL
   METHOD  QS
   &DFT
     BASIS_SET_FILE_NAME GTH_BASIS_SETS
     POTENTIAL_FILE_NAME POTENTIAL
     &SCF
       SCF_GUESS  ATOMIC
       &OT  T
         MINIMIZER  DIIS
       &END OT
       &PRINT
         &RESTART  OFF
         &END RESTART
       &END PRINT
     &END SCF
     &QS
       EPS_DEFAULT     9.9999999999999998E-13
       EXTRAPOLATION  PS
       EXTRAPOLATION_ORDER  3
     &END QS
     &MGRID
       CUTOFF     2.8000000000000000E+02
       REL_CUTOFF     3.0000000000000000E+01
     &END MGRID
     &XC
       DENSITY_CUTOFF     1.0000000000000000E-10
       GRADIENT_CUTOFF     1.0000000000000000E-10
       TAU_CUTOFF     1.0000000000000000E-10
       &XC_FUNCTIONAL  NO_SHORTCUT
         &PADE  T
         &END PADE
       &END XC_FUNCTIONAL
     &END XC
   &END DFT
   &SUBSYS
     &CELL
       A     1.2413800000000002E+01    0.0000000000000000E+00    0.0000000000000000E+00
       B     0.0000000000000000E+00    1.2413800000000002E+01    0.0000000000000000E+00
       C     0.0000000000000000E+00    0.0000000000000000E+00    1.2413800000000002E+01
       MULTIPLE_UNIT_CELL  1 1 1
     &END CELL
     &COORD
O    1.2265692089483924E+01    1.3554390129942036E+00    1.0875425741210545E+01
O    6.4523125712782079E+00    3.7059030017228318E+00    8.6472703373292141E+00
O    7.7679434805449948E-02    2.1684363409616463E+00    8.2608499727948548E+00
O    1.2086328917682364E+01    2.6383236471456106E+00    2.1708319631148263E+00
O    1.2290563434792578E+01    4.1705987030843614E+00    1.2102197401500574E+01
O    7.2035546534508788E+00    9.4146440982938884E-01    4.7596753308530371E+00
O    8.3332259924710836E+00    7.2077559238207547E+00    4.6827252174467979E+00
O    1.2331820354972857E+01    1.1521085584601307E+01    8.0815267568454718E+00
O    3.2742305248729231E+00    4.4591006237004427E+00    9.1745323461747237E+00
O    2.8601657947010346E+00    3.7871321994318605E+00    6.5410904120533226E+00
O    1.3797135980521582E+00    6.3917883108528235E+00    5.6509499049346035E-01
O    1.8717778176468900E+00    8.6859327223317546E+00    2.0908475002935587E+00
O    3.7724126920716636E+00    1.2107291686118625E+01    8.6205990989001933E+00
O    6.4253612010425725E+00    3.6667844669334149E+00    2.7875787966085990E+00
O    1.9996801569167881E+00    1.8525818618605443E+00    4.8671305057775944E+00
O    8.2870264289444471E+00    2.4221945186202389E+00    6.9417301194039096E+00
O    5.7524965525744225E+00    3.3354063225407953E+00    1.2486444073906842E+01
O    1.1313041873263915E+01    5.6568394091370733E+00    2.2481538681308995E+00
O    4.2889086332743185E+00    2.1146774663676791E+00    1.0586400462686617E+01
O    5.3988008779578616E+00    3.3584215761665979E+00    5.4859980676066495E+00
O    6.5093803283318303E+00    1.1870555907452921E+01    7.1448610258285528E-01
O    3.2525927590515877E+00    2.3434818290720925E+00    2.4132514479858749E+00
O    8.0086796499284194E+00    6.3565335203086226E+00    7.4977752039614476E+00
O    5.9288585788258636E+00    6.5082801666043650E+00    1.2195796701642418E+01
O    1.0610385294795508E+01    1.1861264429738625E+01    1.2200574174940007E+01
O    9.3403690756568309E+00    3.6890996107164282E+00    3.5273423653475056E+00
O    1.1111278086578367E+00    5.7890355206451476E+00    6.6473009501981561E+00
O    8.0194995343337183E+00    3.3269739508473957E+00    1.0869758841489807E+01
O    1.2376084676796022E+01    9.6748049821027919E+00    1.1772442429127423E+01
O    4.2098962719504502E+00    7.0914037241392265E+00    8.1403049780540222E+00
O    3.7839656891277111E+00    8.2290488153629919E+00    1.1585038748792421E+01
O    1.1076296436002583E+01    4.5429033328726680E+00    7.8327522122959774E+00
O    1.0435269965490569E+01    8.4217711221836922E+00    1.0328413587523295E+00
O    1.9828015281270579E+00    6.4005825276162218E+00    1.0353823655978507E+01
O    4.7041682767468815E+00    5.6227133611204083E-01    5.6097237226911982E+00
O    8.7178718108893403E+00    1.2242115811187361E+01    8.0976567639231725E+00
O    2.6327341025096058E+00    1.0520521873272891E+01    8.2905623926720906E-02
O    7.2399931187465612E+00    1.0511642196931749E+01    4.2432664330031837E+00
O    2.2807064781620632E+00    2.7612056427352594E-01    1.0807250569989336E+01
O    8.8632061138828995E+00    9.4642072500209040E-01    1.3400856795969049E+00
O    1.9443088048743655E+00    8.0893935868694982E+00    7.5355059867712280E+00
O    9.6598248299588665E+00    8.0355046451626357E+00    9.8565400345208989E+00
O    1.0903669851584306E+01    8.3307153998975974E+00    6.4773146916028264E+00
O    3.5124567442237575E+00    4.8693650210823165E+00    1.5451764009707689E+00
O    7.9775830453592063E+00    8.6026723333305117E+00    1.2050849513770071E+01
O    8.3694035479504763E+00    1.0019371052443150E+01    6.6836141760228909E+00
O    5.6546743218576179E+00    6.0810664230943701E+00    5.5283846573827722E+00
O    1.1742547847645351E+01    1.6241840639034020E+00    5.0859575162072739E+00
O    9.7585719615142725E+00    9.8110347715519470E+00    3.5364867774939825E+00
O    3.9627876574400576E+00    1.0548914651573709E+01    4.6848634346389915E+00
O    9.0110847254965754E-01    6.3699180308686403E+00    4.0614677068442608E+00
O    6.8825857356122278E+00    6.4084220847946858E+00    2.5046902581440293E+00
O    3.8180799995397599E+00    6.6391276583280794E+00    3.7786506828597397E+00
O    6.5639457974899686E+00    8.3081696931559517E+00    8.8142644496195679E+00
O    9.7792965800926908E+00    1.3440562766336220E-01    3.8518038249084738E+00
O    4.1040770115658312E+00    1.1645978558721353E+01    2.2167390496172992E+00
O    5.3225394392112220E+00    8.7370879819811922E+00    2.7520568939068792E+00
O    1.0008064086737139E+01    5.3735087324373447E+00    5.3757728940149310E+00
O    1.2260297782908779E+01    8.6464340629359224E+00    3.9709777917872713E+00
O    2.3431345497116705E+00    1.0747243885368739E+01    6.8128217267251108E+00
O    7.0016612916653269E+00    6.6240597665991741E-01    1.0534341561687873E+01
O    5.1725047982213006E+00    1.0218495319125219E+01    1.0357205957141433E+01
O    1.1186316801594527E+01    5.8851524495734129E+00    1.0299193203865697E+01
O    1.2277001782589849E+01    8.9569716794258127E+00    9.0707884188587382E+00
H    1.2357840653884447E+01    2.3335995753221699E+00    1.1187202568867153E+01
H    1.1946181003856017E+01    1.5338243304140529E+00    9.8820686313880053E+00
H    5.5871540556996369E+00    3.4492983737428431E+00    9.0442905792538841E+00
H    6.8930493554903478E+00    3.0239782285794310E+00    7.9852283560219579E+00
H   -1.4374297116797938E-01    1.5098214846068556E+00    7.5263531243311617E+00
H   -3.8865416711533268E-01    3.0530974755005156E+00    7.9298823362638329E+00
H    1.2176354233152324E+01    2.9746344065109134E+00    1.1924463434423365E+00
H    1.2991627169715519E+01    2.9143170210545764E+00    2.5155346727347281E+00
H    1.1517585159651315E+01    4.3255122446512679E+00    1.1434691026735925E+01
H    1.2784953658522674E+01    5.0635466714145894E+00    1.2040055000822168E+01
H    6.9671401310517895E+00    1.7387343976969070E+00    4.1849967664895207E+00
H    6.2296009063341513E+00    6.8946782722683053E-01    5.1579113656954814E+00
H    7.7273594948732232E+00    7.2216808380998723E+00    5.4888761780280477E+00
H    9.1691701765477340E+00    6.6296086345000713E+00    4.9460727574884711E+00
H    1.2846883768257049E+01    1.1781070688348549E+01    8.9005192602397507E+00
H    1.1983330930253389E+01    1.0563456761596461E+01    8.3168613221527874E+00
H    3.5249173108181608E+00    3.8402074967242728E+00    9.9510006399904043E+00
H    2.4297337650180619E+00    4.9330989925193220E+00    9.5245628999135565E+00
H    2.1731627523316117E+00    4.5583640086454995E+00    6.3013579985283830E+00
H    2.8563500932212409E+00    3.8576048156113143E+00    7.5841394106042603E+00
H    1.1402120515030121E+00    7.1967347480527772E+00    1.1594244541639664E+00
H    2.2451038169255564E+00    6.0044688738683520E+00    1.0028737587399943E+00
H    2.8159635337990232E+00    8.9701748198815761E+00    2.2995199891603844E+00
H    1.3289544665058897E+00    8.9939926467786311E+00    2.8983257079430222E+00
H    4.4550218369062993E+00    1.1540339425003689E+01    9.1644203320315931E+00
H    3.0505860859906164E+00    1.2474023132571658E+01    9.2862357274693235E+00
H    5.8591510063952628E+00    3.4580809397756536E+00    3.6616773633308100E+00
H    5.8328342793246799E+00    3.4003555439707238E+00    1.9823495664213659E+00
H    9.5573469725967064E-01    1.6451477306433226E+00    4.8407733836344340E+00
H    2.2282991647302444E+00    2.4813299829891662E+00    5.6872650230015767E+00
H    8.4431290012355635E+00    1.6050270153559829E+00    7.5442513472486681E+00
H    8.0660702671724387E+00    2.0137128293823712E+00    6.0338191030234354E+00
H    5.2179579256214410E+00    2.8944435585794137E+00    1.1676379626021268E+01
H    6.6808372388710024E+00    3.4137338960722001E+00    1.1974227321954945E+01
H    1.0787628803146621E+01    6.5181395670635878E+00    2.0987991922638902E+00
H    1.1679773573101496E+01    5.3602522151473559E+00    1.3423877172514720E+00
H    3.4353203684199092E+00    1.5422281194349641E+00    1.0899348788957877E+01
H    4.8360131199373457E+00    1.4266306188286009E+00    1.0089887937303898E+01
H    4.3860802582002760E+00    3.3639520802578029E+00    5.6883523933765945E+00
H    5.6851424648160656E+00    4.3694414775809802E+00    5.5473743673654381E+00
H    6.2905172776231773E+00    1.1824099733746285E+01    1.7188529435636009E+00
H    5.6254822935020128E+00    1.2118652077614023E+01    3.2827489265254173E-01
H    3.5448338646085356E+00    1.3905272139791471E+00    2.1815170599110538E+00
H    2.6082617908453334E+00    2.2011793681998268E+00    3.2448585926835571E+00
H    7.1214310944124728E+00    5.8746986475796357E+00    7.5240902705237458E+00
H    8.6555160452204678E+00    5.7349833608760754E+00    7.0296645633619059E+00
H    6.0004465275642316E+00    5.6511979030140553E+00    1.1673025686980287E+01
H    6.2576534574138547E+00    6.3249880564332921E+00    1.3168261180251962E+01
H    1.1110393485508947E+01    1.2636559250997493E+01    1.1695509562619385E+01
H    1.0264574453192944E+01    1.2297166054267496E+01    1.3044673119309541E+01
H    9.9063257583773439E+00    4.0523254539286544E+00    2.7328096710823448E+00
H    8.5320976562309561E+00    3.4662435851517714E+00    2.9418258347985722E+00
H    1.4549325922377123E+00    6.6684406032654646E+00    7.1063381287420277E+00
H    1.0013233336709417E+00    6.1758231958589942E+00    5.6553319488925888E+00
H    7.9834584102599697E+00    3.6965662970360165E+00    9.9295362401112293E+00
H    8.0702893407895679E+00    2.3148727995363694E+00    1.0750118168090980E+01
H    1.1741851247338420E+01    1.0457041172522898E+01    1.2099135806994566E+01
H    1.2145140467200536E+01    8.9346530857761657E+00    1.2412210742863778E+01
H    3.3373535314763663E+00    7.6121200308665395E+00    7.8531045761948821E+00
H    3.8438071109319392E+00    6.2417161568827328E+00    8.6114175129814257E+00
H    3.1132077807628176E+00    7.6196920981180298E+00    1.1070308623802417E+01
H    4.4752997918975961E+00    7.6309327249730448E+00    1.2076616644959927E+01
H    1.1595109347938884E+01    4.9846383472197502E+00    7.0588447442738529E+00
H    1.0300198428130191E+01    4.1359917521740126E+00    7.3179795841146866E+00
H    1.0066803629045204E+01    8.9449101926875745E+00    1.8648409458418231E+00
H    9.5721275817977780E+00    8.2654871620120112E+00    4.9820470823378066E-01
H    1.3188214514401089E+00    6.6901027276303378E+00    9.6503048603157762E+00
H    1.4021624816985017E+00    6.4512365186894707E+00    1.1227722789148297E+01
H    4.1225373888739512E+00    1.3301382656577423E+00    5.2661059713494032E+00
H    4.6863100279915288E+00    6.4323888154076447E-01    6.6181558656211390E+00
H    9.4703533710556318E+00    1.2334177792059011E+01    8.7409520154270712E+00
H    8.8486737260984523E+00    1.1353175343935389E+01    7.5414016813725580E+00
H    1.7346635260620755E+00    1.0023247752455335E+01    1.4531246290931060E-01
H    3.3374323737185514E+00    9.8445600332827254E+00   -2.3573946363646470E-01
H    7.0505799823415449E+00    1.1506005604268443E+01    4.1255571139595473E+00
H    6.4716019298306184E+00    9.9354966266935758E+00    3.7910911532767879E+00
H    1.3268589592356625E+00    5.8377393429784341E-01    1.1128929736799661E+01
H    2.5223619020797821E+00   -5.4513600115573457E-01    1.1460522258349298E+01
H    8.7695024945576208E+00    1.8730405160140753E+00    9.9029984538902194E-01
H    8.0908940305253463E+00    3.3984351975117894E-01    9.9164118000440860E-01
H    1.1203607709250349E+00    8.3716512006967108E+00    8.1792323344823981E+00
H    2.0883187077761254E+00    8.9941496096233795E+00    7.0138877035389759E+00
H    8.9092455661168195E+00    7.7938840102091049E+00    9.2222118549486574E+00
H    9.0650442925885582E+00    8.4492400512116284E+00    1.0614283870982606E+01
H    1.0125293357174513E+01    7.6972294325272514E+00    6.4507709233855159E+00
H    1.0499855152540221E+01    9.1992705817148330E+00    6.1555311709803640E+00
H    3.4971231604225612E+00    3.9586904012078477E+00    2.1122844778205940E+00
H    4.0584146620672579E+00    4.5845739999387805E+00    7.4299547661181031E-01
H    7.3547300979710375E+00    9.3907717765818592E+00    1.2034662471097127E+01
H    7.3341917810679673E+00    7.7711469163739180E+00    1.2054219542752508E+01
H    7.8271815569079628E+00    1.0161811172289916E+01    5.7814619639481100E+00
H    7.7120113817891749E+00    9.5092512996355492E+00    7.2843726304682033E+00
H    5.2899463871895609E+00    6.4889429596085053E+00    6.3929757321027187E+00
H    4.8678252868841287E+00    6.3175211180864475E+00    4.8313586361433432E+00
H    1.1521862541306019E+01    2.1923283626798309E+00    4.2496614328180158E+00
H    1.1222791846958105E+01    7.8414795598380205E-01    4.7829538343862872E+00
H    8.8119942350222455E+00    9.6778779613694983E+00    3.9666686831548525E+00
H    9.9342844970869457E+00    1.0814156988791396E+01    3.7816372858600871E+00
H    3.1082289528955154E+00    1.0546326407174734E+01    5.2868803913858065E+00
H    4.3132584907104592E+00    1.1455620653058237E+01    5.0610780320726834E+00
H    4.2220406784290088E-01    7.3045102192445599E+00    3.8013135649941692E+00
H    2.9772343931237272E-01    5.7724401932042282E+00    3.4526995513594541E+00
H    7.5860591209723607E+00    6.5678847601549002E+00    3.2915836809343291E+00
H    6.6758385347283866E+00    5.3831754309178121E+00    2.5200133494032850E+00
H    3.8532534172204524E+00    6.3060046348697663E+00    2.8123783749708537E+00
H    2.7953246440735695E+00    6.5485847389782279E+00    3.9537741358612331E+00
H    5.5553176437610921E+00    8.0120599991626182E+00    8.6583941104729742E+00
H    6.9993930795496961E+00    7.4780238970676862E+00    8.4104344163926292E+00
H    9.5571588990614771E+00    7.3280446145762423E-01    3.0174818797267129E+00
H    8.9237164310792583E+00    1.3437510586106871E-01    4.4076447871978717E+00
H    3.8482457315667604E+00    1.1174438455171156E+01    1.3441470566655458E+00
H    3.9626056228568030E+00    1.0964278466897996E+01    3.0102551897950094E+00
H    5.9449661422372202E+00    7.8891857853090768E+00    2.7995741535957621E+00
H    4.7652120121308696E+00    8.7229381074889858E+00    3.5906717261661520E+00
H    1.0905815782848062E+01    5.5302201800698461E+00    4.9342869455824019E+00
H    9.5033245323312823E+00    4.6732708376729022E+00    4.7171193166484136E+00
H    1.1491942104117069E+01    9.0018887406785257E+00    3.3983649908362450E+00
H    1.1959903629038450E+01    8.7851547644299064E+00    4.9401026898653919E+00
H    2.9404439844277794E+00    1.1333326721638155E+01    7.4881123877729570E+00
H    1.3993518978819750E+00    1.1120275827042745E+01    6.8063456551226595E+00
H    7.2181951384386247E+00    1.2809608485306123E-01    9.7032371258683145E+00
H    7.1648660378589160E+00    1.0772078745100797E-01    1.1367500988399589E+01
H    4.8113412051052089E+00    9.3237474535608804E+00    1.0837702423612125E+01
H    6.0816481698037874E+00    9.8060697913096533E+00    1.0186927365163449E+01
H    1.0565212262638005E+01    6.7306908548550792E+00    1.0314443980528525E+01
H    1.1239043366237148E+01    5.5938377372082391E+00    9.3143651163970578E+00
H    1.2188456954751656E+01    8.9927460848981422E+00    1.0127821223537264E+01
H    1.1415764242457577E+01    8.6329965781032030E+00    8.6365688433575354E+00
     &END COORD
     &VELOCITY
           2.4353373553186687E-04   -1.2006097602700524E-04    8.6380096429985494E-05
           5.1311970177392698E-05   -1.2708266215370372E-06   -1.4048482608210150E-05
          -1.3298767757276487E-04   -8.3910828185601886E-05   -1.7227772179777062E-04
           3.2311111387354569E-04   -2.8974228281265595E-04    2.2815855771206591E-04
           3.6807112800031128E-04   -1.6540691872540960E-04    8.2168021723848188E-05
           8.6843810077926920E-05   -1.6733145784975027E-04    2.3233906169713517E-04
          -1.9144732815492120E-04    3.6490306372794814E-05    1.7692428816312950E-04
          -2.7339212137244602E-04   -2.0181330301265365E-06   -2.5185283188768927E-04
          -2.9114797156425581E-04    1.4202524657078283E-04   -9.4207613533997262E-05
           4.9604684381600058E-05    1.9764986075563584E-04   -3.9675655900899812E-05
          -1.0338266296024664E-04    2.5533554886759572E-04   -1.7753567723018986E-04
           1.2393271803162140E-04   -5.1522817966294956E-05    2.4869105054731676E-04
           3.7171385612607458E-05    1.3912087635388885E-04   -2.6001104941759880E-04
          -9.0584380441605775E-05   -5.4256969625838913E-05    1.3571849163666099E-04
          -1.3532069033519036E-05    2.9312535024554127E-04   -1.1035216194441402E-04
           3.4365663856601231E-04    1.2592891247603305E-04    1.2984947778221505E-04
           3.1061310689164750E-05   -2.1491061234536207E-04    1.3642911352339848E-04
          -1.1197980598918110E-04    8.8708519145370618E-05    8.1551359029127492E-05
           7.2553977149319177E-05   -7.4882564048733643E-05   -3.7593240429311643E-05
          -3.9311008771140237E-05    7.7794970772542560E-05   -4.9503853884428419E-05
           1.3050850736703092E-04    3.2997372843693673E-05    2.3384938882028603E-04
          -2.3506710107609735E-04   -1.3038351983477646E-04   -7.8872779761312797E-05
           2.2656471395840290E-04    3.8984618373283129E-06   -1.0674489559599207E-04
          -4.8910812396534063E-04   -8.8250996371328167E-05    4.1168871694521438E-05
          -2.3516505104794527E-04    3.0141522875893307E-05   -4.3307021528163181E-05
           2.3874077440409717E-04    1.6479626533114254E-04   -6.5961174412485113E-06
           2.1570400445611482E-06   -3.6687604474140571E-04    1.9056449024384130E-05
           1.5263290746066310E-04   -4.5423683352165024E-05   -4.7828240980762719E-05
          -2.4361660474364404E-04   -1.5799538490326662E-04    1.4701044899501724E-04
          -4.6332302276780486E-05    6.6958418740353459E-05   -1.4093723621236347E-04
           7.0402526350411655E-05    1.4787938508888801E-04    2.3294646136605570E-04
          -1.0541845847523355E-04    9.0959878373925008E-05    1.4239486316678385E-04
           3.9447066267385585E-04    6.7697585287747059E-05    1.1078543440091653E-04
          -7.7642050394557166E-05   -1.2536442818601240E-04   -1.9896428319707483E-04
           4.0834731830702038E-04    1.4767279244946461E-04    2.0697580191076791E-05
          -2.3059415804963144E-04   -1.2069261926486088E-04    1.1528847271893700E-04
          -2.2453224222691669E-04    3.2508315209831294E-04   -1.1011175869305419E-04
          -2.5223464560374394E-05    3.9102949517023884E-04    1.6353834116348905E-04
           2.2717843315947354E-05   -6.2765751653334936E-06    4.4671040028972121E-05
          -2.2749659830646895E-04   -6.9576305508595531E-06    6.3788388336844960E-05
          -7.5841302718286237E-05    8.7087799011853034E-05   -2.6939094015358735E-04
          -1.5166914072214547E-04   -1.6482446184515036E-04   -8.8619423404883677E-05
           8.3255811683867432E-06   -5.3065384631294867E-05   -7.5044278376006608E-05
           6.6403553283238216E-05    1.1865592146648831E-04   -1.6876922794219036E-04
          -3.6854176965721872E-04   -4.4916679521424322E-04   -7.2212204727555634E-05
          -1.2514834926102513E-04   -2.1658705550554611E-04    1.4279407556721742E-05
           1.5301292386561130E-04    7.8212466735449405E-05   -2.6042789655647064E-04
           1.1597437780974974E-04    1.3153166326548534E-04    1.9714489345331408E-05
          -2.7586288468368153E-05    4.9135802994409453E-05   -8.2847135186231487E-05
           1.7533037836977753E-04   -1.0200057778918799E-04   -1.5955910871721967E-05
           9.1305293481449860E-06   -1.7063363096473514E-04   -1.2704533408542800E-04
           2.0532414020136094E-04   -1.8523108330586457E-04    1.5576953260009550E-04
          -9.5082342050035399E-05    3.8898283928842371E-04    6.8143354602443005E-05
          -3.3468517683586088E-05    1.1413973594384609E-04    4.8372670606350829E-05
          -3.2167308794001038E-04   -6.7373694363284027E-05   -3.3440505798353932E-04
          -1.0565699375449901E-04   -1.8612919959482932E-04   -4.1185047197575315E-05
           3.0227443463986555E-04   -1.9476821746767191E-08   -4.0898192670146656E-05
           3.4132859751070520E-04   -7.5666618758375148E-05    3.1369871723522450E-04
           4.8774504467508679E-06    9.5432986768429124E-05    4.0463993791279502E-05
          -7.3525642131360249E-05   -1.1023344657343544E-04   -1.6990266178667100E-04
          -9.5305467323637182E-05    1.5924492797713733E-04    1.0050784054864575E-04
           2.9577992716552776E-04   -2.0302338272297230E-04   -3.8000268538665816E-06
           3.3426751501487519E-05    2.9960856874764978E-05    2.2957098671994760E-05
           2.1247046210201294E-04   -1.8773508816619713E-04   -7.1323934922551548E-05
          -4.5158839413488510E-04   -3.6143060079255870E-05   -6.1976176341159428E-04
           9.6706711087573855E-04   -4.1494673937808748E-04   -1.4270244722079601E-03
           7.4657709738754552E-04    7.4979183341664893E-04   -2.9716006651033983E-05
           1.1944835029961388E-03   -2.4887952169611071E-04   -4.6965328168286155E-04
           3.3415678178661998E-04   -4.4057529885967053E-04   -4.5347033645579620E-04
           1.1012796129984230E-03    2.9083917956001419E-04   -1.2194190254983962E-03
           2.2415342341482622E-04    1.5937251548555527E-03   -3.7781211911284908E-04
           1.0073465758494936E-03   -6.8157982680966758E-04    2.6183752025964917E-04
          -6.9769183658769862E-05    2.4841597123586587E-05   -1.3349984300874384E-04
          -6.5395783734219150E-04   -1.1729839028955710E-04    1.7209949839244981E-04
          -6.3912725034649784E-04   -9.4833908164602759E-04   -2.5753189732902020E-04
          -3.9187509729235448E-04   -2.4417797176556829E-04   -5.0822500047381116E-04
           2.8904185306715627E-04   -2.0455475311348271E-03   -7.4488003302832038E-04
           3.8533435943324346E-04   -1.5649598638849637E-03   -8.1999331588695123E-04
           6.6163782210886739E-04   -2.0530137993019846E-04   -4.7022778534812468E-04
          -4.8571775225154503E-05   -1.4283455067373950E-03    8.4970777264128786E-04
          -5.1040502071906168E-04    9.0124041076345329E-04   -4.3717828656997520E-04
           2.7962496772465038E-04    1.1112791910798604E-04   -5.6980553869487771E-04
          -1.5080494509583440E-03    7.3672779724005474E-04   -5.7541529142312442E-06
           2.4475429620503508E-04    9.7437756642695071E-04   -4.8339679943139367E-04
          -8.5981680078432360E-05    5.9512037266817115E-04   -4.8949501758880520E-05
          -6.8266467564846939E-04   -5.5567223333659462E-04    7.1350489601562021E-04
           4.8033714505690811E-05    6.5011279414508769E-04   -7.7943973949670480E-04
           8.0491911093042006E-05   -7.8343749752556426E-04    7.2435736497948025E-04
           2.5839724571526085E-04    7.5578985185700761E-05   -5.8507007757241792E-04
           3.2468632064110094E-04   -2.7324024723362258E-04    2.5249479695377335E-04
          -1.0539062839304396E-03    5.0616494373683643E-04    7.1049452486268868E-04
           8.0541579377330975E-04   -1.4428395473335857E-04   -9.1111624630045910E-04
          -9.3901405519951678E-05   -1.7440336410236886E-04   -6.6695306718438140E-04
          -5.9667439631791842E-04    2.1020879938582109E-03   -1.6524975843862098E-04
          -5.9413689339078083E-04   -1.8314218673248634E-04   -3.0878549940631795E-04
          -1.1299139623634979E-04   -1.9706794256528655E-04    5.4164798333985608E-04
           3.7379192865347687E-04   -2.2187500989898987E-04   -3.6215118742553300E-04
          -5.2111287106478357E-04    8.9091209793652369E-04   -5.6207250900721858E-04
           6.7919292606361870E-04    1.3343181453783325E-04   -5.4958333089017417E-04
          -5.0955912357123420E-05   -7.8811310899463678E-04    5.3306738439469015E-04
          -8.4615276347199127E-05   -4.3969810880218751E-04   -1.5061331385031759E-03
           1.9621493943996747E-04    7.0658921104430582E-04    7.9834173948932464E-04
          -3.1086266728153750E-04    7.4710976671557669E-04    4.9983161015553054E-04
          -7.7088036733912845E-04    8.7923123999941700E-04    4.4906439902552003E-04
           4.7843808737698274E-04    2.0885304144355185E-04    9.9081078442434401E-04
           2.7383478090143155E-04   -1.2076470169036229E-05    2.0312636572801762E-03
           2.2238602224948750E-04    4.5732113706614230E-04    2.0297495633953421E-03
          -1.3983314819830699E-04    6.4110517558909296E-04    2.3541721875082981E-04
           1.0634351963907940E-03   -8.1406755449860537E-04    2.5592615927652308E-04
           5.5764666824552073E-04   -2.4944020395779355E-04    1.0095491375603873E-03
           8.2355304834480394E-04    4.6265598281262010E-04    1.0873683440549846E-03
           1.0554542732416012E-03    1.4711843503884972E-03   -1.9257994645345379E-04
          -5.9301436634970730E-04    1.4338243179653910E-03   -1.0518598720422579E-03
           1.7009542630996670E-04   -2.7229621441552288E-04   -1.8275874435175784E-04
          -3.9794180044027051E-04    1.1377334676057425E-03    1.5111872074470841E-04
          -2.1010779022038559E-04    2.5908254733826412E-04    1.2965840740926313E-03
           5.7014687399457105E-04    4.3663748723715766E-04   -1.4622705924660444E-04
           2.7451658005766638E-04   -1.1055104188431145E-04   -2.7011911347812933E-04
          -1.5488517944013303E-03   -4.8268639177162086E-04    1.0661735519989616E-03
           1.1223093816760174E-04    6.1336181167440833E-04   -2.4337739021729711E-04
          -8.4642821008583911E-04    2.7314900747423909E-04    4.4966165018005527E-04
          -9.0281864257391519E-04    4.6471968390787428E-04   -2.6632644265605325E-04
          -1.1909602595379996E-03    3.2546725749149603E-05   -5.5177771596106077E-05
           2.6878284876381847E-04   -1.1019214431403155E-03    6.7804196598104406E-04
           3.1926309387625255E-04    1.0177813137539795E-03   -3.0847823993030002E-04
          -4.2284471691672300E-04    4.3959034011879371E-04   -8.2960000476226209E-04
           4.5763012012648043E-04   -7.2873611065902232E-04   -1.9810871952979529E-04
          -2.5435809606357235E-04   -2.9857092394976344E-04    4.0812967128326142E-04
          -1.7369381693590737E-04    6.5701533354939605E-04    1.2674523034228796E-03
           2.5615963333039903E-04   -1.0911306517817114E-06    1.1679000472763720E-03
          -1.6308109896015553E-05    1.3149337651480468E-03    1.0407917755655876E-03
           8.9763869708745945E-04   -3.3652501424625658E-04    5.8254652405196369E-04
           1.0486726918909977E-03    1.4387708623544933E-04   -1.3227328925016913E-03
          -7.1280006661925566E-04    3.7576614694327160E-04   -7.8229807967088746E-04
          -4.9597517544909252E-05    2.0943390435270797E-05   -3.3577883355766436E-04