 # Version information for this restart file 
 # current date 2023-07-31 10:47:22.017
 # current working dir /mnt/lustre/indy2lfs/work/tc047/tc047/mrnuff-cirrus/cp2k/nuff-benchmarks/H2O-64-32node
 # Program compiled at                              Thu Jun 30 12:29:55 BST 2022
 # Program compiled on                                             cirrus-login3
 # Program compiled for                                             Cirrus-intel
 # Source code revision number                                       git:e635599
 &GLOBAL
   PRINT_LEVEL  LOW
   PROJECT_NAME H2O-64
   RUN_TYPE  MD
 &END GLOBAL
 &MOTION
   &MD
     ENSEMBLE  NVE
     STEPS  10
     TIMESTEP     4.9999999999999994E-01
     STEP_START_VAL  10
     TIME_START_VAL     4.9999999999999982E+00
     ECONS_START_VAL    -1.1007588181101657E+03
     TEMPERATURE     3.0000000000000000E+02
     &AVERAGES  T
       &RESTART_AVERAGES
         ITIMES_START  1
         AVECPU     2.9021399649558588E+00
         AVEHUGONIOT     0.0000000000000000E+00
         AVETEMP_BARO     0.0000000000000000E+00
         AVEPOT    -1.1010668160173041E+03
         AVEKIN     3.0070034549315661E-01
         AVETEMP     3.3142598855984340E+02
         AVEKIN_QM     0.0000000000000000E+00
         AVETEMP_QM     0.0000000000000000E+00
         AVEVOL     1.2909542132085598E+04
         AVECELL_A     2.3458682268415796E+01
         AVECELL_B     2.3458682268415796E+01
         AVECELL_C     2.3458682268415796E+01
         AVEALPHA     9.0000000000000000E+01
         AVEBETA     9.0000000000000000E+01
         AVEGAMMA     9.0000000000000000E+01
         AVE_ECONS    -1.0896372618470640E+01
         AVE_PRESS     0.0000000000000000E+00
         AVE_PXX     0.0000000000000000E+00
       &END RESTART_AVERAGES
     &END AVERAGES
   &END MD
 &END MOTION
 &FORCE_EVAL
   METHOD  QS
   &DFT
     BASIS_SET_FILE_NAME GTH_BASIS_SETS
     POTENTIAL_FILE_NAME POTENTIAL
     &SCF
       SCF_GUESS  ATOMIC
       &OT  T
         MINIMIZER  DIIS
       &END OT
       &PRINT
         &RESTART  OFF
         &END RESTART
       &END PRINT
     &END SCF
     &QS
       EPS_DEFAULT     9.9999999999999998E-13
       EXTRAPOLATION  PS
       EXTRAPOLATION_ORDER  3
     &END QS
     &MGRID
       CUTOFF     2.8000000000000000E+02
       REL_CUTOFF     3.0000000000000000E+01
     &END MGRID
     &XC
       DENSITY_CUTOFF     1.0000000000000000E-10
       GRADIENT_CUTOFF     1.0000000000000000E-10
       TAU_CUTOFF     1.0000000000000000E-10
       &XC_FUNCTIONAL  NO_SHORTCUT
         &PADE  T
         &END PADE
       &END XC_FUNCTIONAL
     &END XC
   &END DFT
   &SUBSYS
     &CELL
       A     1.2413800000000002E+01    0.0000000000000000E+00    0.0000000000000000E+00
       B     0.0000000000000000E+00    1.2413800000000002E+01    0.0000000000000000E+00
       C     0.0000000000000000E+00    0.0000000000000000E+00    1.2413800000000002E+01
       MULTIPLE_UNIT_CELL  1 1 1
     &END CELL
     &COORD
O    1.2265692089483919E+01    1.3554390129941805E+00    1.0875425741210490E+01
O    6.4523125712782132E+00    3.7059030017228598E+00    8.6472703373291857E+00
O    7.7679434805458289E-02    2.1684363409615646E+00    8.2608499727948530E+00
O    1.2086328917682481E+01    2.6383236471456191E+00    2.1708319631148072E+00
O    1.2290563434792576E+01    4.1705987030844032E+00    1.2102197401500655E+01
O    7.2035546534508033E+00    9.4146440982942325E-01    4.7596753308529305E+00
O    8.3332259924710126E+00    7.2077559238207742E+00    4.6827252174467926E+00
O    1.2331820354972866E+01    1.1521085584601307E+01    8.0815267568454576E+00
O    3.2742305248729258E+00    4.4591006237003645E+00    9.1745323461748978E+00
O    2.8601657947010133E+00    3.7871321994318756E+00    6.5410904120532800E+00
O    1.3797135980521613E+00    6.3917883108528128E+00    5.6509499049346867E-01
O    1.8717778176469115E+00    8.6859327223317688E+00    2.0908475002935649E+00
O    3.7724126920716254E+00    1.2107291686118611E+01    8.6205990989002679E+00
O    6.4253612010428407E+00    3.6667844669334722E+00    2.7875787966085950E+00
O    1.9996801569167169E+00    1.8525818618605676E+00    4.8671305057776033E+00
O    8.2870264289442588E+00    2.4221945186202225E+00    6.9417301194039887E+00
O    5.7524965525743168E+00    3.3354063225407566E+00    1.2486444073906775E+01
O    1.1313041873263909E+01    5.6568394091371124E+00    2.2481538681309479E+00
O    4.2889086332743895E+00    2.1146774663677288E+00    1.0586400462686615E+01
O    5.3988008779579264E+00    3.3584215761666565E+00    5.4859980676066922E+00
O    6.5093803283317406E+00    1.1870555907452930E+01    7.1448610258288137E-01
O    3.2525927590515549E+00    2.3434818290721697E+00    2.4132514479858180E+00
O    8.0086796499284212E+00    6.3565335203086137E+00    7.4977752039614058E+00
O    5.9288585788258050E+00    6.5082801666043686E+00    1.2195796701642390E+01
O    1.0610385294795510E+01    1.1861264429738645E+01    1.2200574174940050E+01
O    9.3403690756568754E+00    3.6890996107164122E+00    3.5273423653475096E+00
O    1.1111278086578085E+00    5.7890355206451396E+00    6.6473009501981490E+00
O    8.0194995343336757E+00    3.3269739508474312E+00    1.0869758841489814E+01
O    1.2376084676796024E+01    9.6748049821027280E+00    1.1772442429127345E+01
O    4.2098962719504929E+00    7.0914037241392682E+00    8.1403049780540684E+00
O    3.7839656891277551E+00    8.2290488153628250E+00    1.1585038748792236E+01
O    1.1076296436002730E+01    4.5429033328726689E+00    7.8327522122959738E+00
O    1.0435269965490541E+01    8.4217711221837135E+00    1.0328413587523684E+00
O    1.9828015281270894E+00    6.4005825276162520E+00    1.0353823655978509E+01
O    4.7041682767469268E+00    5.6227133611207780E-01    5.6097237226912045E+00
O    8.7178718108893349E+00    1.2242115811187359E+01    8.0976567639230073E+00
O    2.6327341025095192E+00    1.0520521873272999E+01    8.2905623926695232E-02
O    7.2399931187465434E+00    1.0511642196931675E+01    4.2432664330031962E+00
O    2.2807064781621009E+00    2.7612056427351928E-01    1.0807250569989412E+01
O    8.8632061138828799E+00    9.4642072500206198E-01    1.3400856795969280E+00
O    1.9443088048743986E+00    8.0893935868696527E+00    7.5355059867712182E+00
O    9.6598248299588629E+00    8.0355046451625523E+00    9.8565400345209575E+00
O    1.0903669851584246E+01    8.3307153998975902E+00    6.4773146916029010E+00
O    3.5124567442238019E+00    4.8693650210823334E+00    1.5451764009707953E+00
O    7.9775830453592231E+00    8.6026723333305153E+00    1.2050849513770068E+01
O    8.3694035479504585E+00    1.0019371052443072E+01    6.6836141760228749E+00
O    5.6546743218574829E+00    6.0810664230944100E+00    5.5283846573827331E+00
O    1.1742547847645646E+01    1.6241840639033998E+00    5.0859575162072455E+00
O    9.7585719615141180E+00    9.8110347715518831E+00    3.5364867774940292E+00
O    3.9627876574400438E+00    1.0548914651573714E+01    4.6848634346389844E+00
O    9.0110847254964443E-01    6.3699180308686998E+00    4.0614677068442306E+00
O    6.8825857356121798E+00    6.4084220847944380E+00    2.5046902581440249E+00
O    3.8180799995398389E+00    6.6391276583280172E+00    3.7786506828598219E+00
O    6.5639457974898692E+00    8.3081696931558380E+00    8.8142644496195626E+00
O    9.7792965800925202E+00    1.3440562766335168E-01    3.8518038249084769E+00
O    4.1040770115658303E+00    1.1645978558721319E+01    2.2167390496172952E+00
O    5.3225394392111784E+00    8.7370879819810323E+00    2.7520568939068664E+00
O    1.0008064086737150E+01    5.3735087324373163E+00    5.3757728940148866E+00
O    1.2260297782908701E+01    8.6464340629359562E+00    3.9709777917873010E+00
O    2.3431345497116425E+00    1.0747243885368738E+01    6.8128217267251037E+00
O    7.0016612916653465E+00    6.6240597665993484E-01    1.0534341561687878E+01
O    5.1725047982212917E+00    1.0218495319125225E+01    1.0357205957141435E+01
O    1.1186316801594460E+01    5.8851524495734600E+00    1.0299193203865697E+01
O    1.2277001782589700E+01    8.9569716794257843E+00    9.0707884188586281E+00
H    1.2357840653884463E+01    2.3335995753222907E+00    1.1187202568867136E+01
H    1.1946181003855664E+01    1.5338243304144212E+00    9.8820686313882202E+00
H    5.5871540556998189E+00    3.4492983737427134E+00    9.0442905792539161E+00
H    6.8930493554903345E+00    3.0239782285796744E+00    7.9852283560218069E+00
H   -1.4374297116824411E-01    1.5098214846074531E+00    7.5263531243305914E+00
H   -3.8865416711541179E-01    3.0530974755005431E+00    7.9298823362641038E+00
H    1.2176354233152255E+01    2.9746344065108974E+00    1.1924463434420913E+00
H    1.2991627169715413E+01    2.9143170210543090E+00    2.5155346727349648E+00
H    1.1517585159651601E+01    4.3255122446514669E+00    1.1434691026735806E+01
H    1.2784953658522461E+01    5.0635466714146675E+00    1.2040055000821624E+01
H    6.9671401310521510E+00    1.7387343976970639E+00    4.1849967664896983E+00
H    6.2296009063340829E+00    6.8946782722665245E-01    5.1579113656953286E+00
H    7.7273594948733511E+00    7.2216808380998083E+00    5.4888761780279074E+00
H    9.1691701765473912E+00    6.6296086344995375E+00    4.9460727574880856E+00
H    1.2846883768257515E+01    1.1781070688348624E+01    8.9005192602396583E+00
H    1.1983330930254077E+01    1.0563456761595905E+01    8.3168613221528087E+00
H    3.5249173108181751E+00    3.8402074967239828E+00    9.9510006399902995E+00
H    2.4297337650178785E+00    4.9330989925194970E+00    9.5245628999132723E+00
H    2.1731627523316459E+00    4.5583640086456985E+00    6.3013579985289612E+00
H    2.8563500932207626E+00    3.8576048156108880E+00    7.5841394106043820E+00
H    1.1402120515028731E+00    7.1967347480530028E+00    1.1594244541634779E+00
H    2.2451038169255284E+00    6.0044688738684311E+00    1.0028737587398777E+00
H    2.8159635337990179E+00    8.9701748198817750E+00    2.2995199891603084E+00
H    1.3289544665057447E+00    8.9939926467789348E+00    2.8983257079429068E+00
H    4.4550218369063783E+00    1.1540339425003797E+01    9.1644203320315309E+00
H    3.0505860859903065E+00    1.2474023132570977E+01    9.2862357274696716E+00
H    5.8591510063953800E+00    3.4580809397750776E+00    3.6616773633306297E+00
H    5.8328342793243504E+00    3.4003555439706008E+00    1.9823495664216908E+00
H    9.5573469725923499E-01    1.6451477306432201E+00    4.8407733836346942E+00
H    2.2282991647305046E+00    2.4813299829891826E+00    5.6872650230018094E+00
H    8.4431290012362403E+00    1.6050270153563415E+00    7.5442513472486539E+00
H    8.0660702671728171E+00    2.0137128293825768E+00    6.0338191030234869E+00
H    5.2179579256215014E+00    2.8944435585789456E+00    1.1676379626021182E+01
H    6.6808372388710415E+00    3.4137338960718369E+00    1.1974227321954807E+01
H    1.0787628803146598E+01    6.5181395670635780E+00    2.0987991922636069E+00
H    1.1679773573101865E+01    5.3602522151475629E+00    1.3423877172512915E+00
H    3.4353203684197400E+00    1.5422281194348073E+00    1.0899348788957786E+01
H    4.8360131199373484E+00    1.4266306188287241E+00    1.0089887937303995E+01
H    4.3860802582003036E+00    3.3639520802574170E+00    5.6883523933764097E+00
H    5.6851424648163613E+00    4.3694414775808275E+00    5.5473743673651059E+00
H    6.2905172776226062E+00    1.1824099733746204E+01    1.7188529435632480E+00
H    5.6254822935019622E+00    1.2118652077614025E+01    3.2827489265278081E-01
H    3.5448338646089925E+00    1.3905272139790628E+00    2.1815170599111369E+00
H    2.6082617908455186E+00    2.2011793681992495E+00    3.2448585926837290E+00
H    7.1214310944128707E+00    5.8746986475789562E+00    7.5240902705241375E+00
H    8.6555160452212174E+00    5.7349833608760150E+00    7.0296645633623438E+00
H    6.0004465275643213E+00    5.6511979030142818E+00    1.1673025686980267E+01
H    6.2576534574138982E+00    6.3249880564333170E+00    1.3168261180251907E+01
H    1.1110393485509407E+01    1.2636559250997582E+01    1.1695509562619277E+01
H    1.0264574453192616E+01    1.2297166054267301E+01    1.3044673119309568E+01
H    9.9063257583771733E+00    4.0523254539289013E+00    2.7328096710821388E+00
H    8.5320976562306754E+00    3.4662435851518736E+00    2.9418258347990203E+00
H    1.4549325922383933E+00    6.6684406032647194E+00    7.1063381287420704E+00
H    1.0013233336713270E+00    6.1758231958588086E+00    5.6553319488927576E+00
H    7.9834584102601882E+00    3.6965662970360325E+00    9.9295362401112452E+00
H    8.0702893407897562E+00    2.3148727995364169E+00    1.0750118168091085E+01
H    1.1741851247338419E+01    1.0457041172522963E+01    1.2099135806994822E+01
H    1.2145140467200212E+01    8.9346530857762119E+00    1.2412210742863703E+01
H    3.3373535314761726E+00    7.6121200308662997E+00    7.8531045761947285E+00
H    3.8438071109316474E+00    6.2417161568826982E+00    8.6114175129807311E+00
H    3.1132077807627296E+00    7.6196920981179259E+00    1.1070308623802633E+01
H    4.4752997918974096E+00    7.6309327249729870E+00    1.2076616644959772E+01
H    1.1595109347938438E+01    4.9846383472197200E+00    7.0588447442733209E+00
H    1.0300198428129983E+01    4.1359917521738758E+00    7.3179795841150863E+00
H    1.0066803629045497E+01    8.9449101926873240E+00    1.8648409458419426E+00
H    9.5721275817980800E+00    8.2654871620121071E+00    4.9820470823353102E-01
H    1.3188214514399699E+00    6.6901027276302374E+00    9.6503048603155825E+00
H    1.4021624816980531E+00    6.4512365186892726E+00    1.1227722789148171E+01
H    4.1225373888738037E+00    1.3301382656577811E+00    5.2661059713495710E+00
H    4.6863100279914525E+00    6.4323888154042153E-01    6.6181558656211719E+00
H    9.4703533710556300E+00    1.2334177792058457E+01    8.7409520154270002E+00
H    8.8486737260978128E+00    1.1353175343935400E+01    7.5414016813721334E+00
H    1.7346635260619812E+00    1.0023247752455450E+01    1.4531246290886676E-01
H    3.3374323737189644E+00    9.8445600332829599E+00   -2.3573946363567236E-01
H    7.0505799823412225E+00    1.1506005604268374E+01    4.1255571139600304E+00
H    6.4716019298304150E+00    9.9354966266940128E+00    3.7910911532767226E+00
H    1.3268589592353546E+00    5.8377393429802216E-01    1.1128929736799877E+01
H    2.5223619020798873E+00   -5.4513600115581007E-01    1.1460522258349203E+01
H    8.7695024945572904E+00    1.8730405160141954E+00    9.9029984538934424E-01
H    8.0908940305254511E+00    3.3984351975124338E-01    9.9164118000415535E-01
H    1.1203607709248167E+00    8.3716512006962951E+00    8.1792323344823483E+00
H    2.0883187077761063E+00    8.9941496096233955E+00    7.0138877035392317E+00
H    8.9092455661170682E+00    7.7938840102089317E+00    9.2222118549486911E+00
H    9.0650442925886843E+00    8.4492400512114916E+00    1.0614283870982680E+01
H    1.0125293357174705E+01    7.6972294325275170E+00    6.4507709233850337E+00
H    1.0499855152539910E+01    9.1992705817145790E+00    6.1555311709802361E+00
H    3.4971231604224520E+00    3.9586904012079609E+00    2.1122844778204422E+00
H    4.0584146620670349E+00    4.5845739999385335E+00    7.4299547661176879E-01
H    7.3547300979711885E+00    9.3907717765820014E+00    1.2034662471097132E+01
H    7.3341917810683475E+00    7.7711469163740006E+00    1.2054219542752172E+01
H    7.8271815569077727E+00    1.0161811172290689E+01    5.7814619639485736E+00
H    7.7120113817890052E+00    9.5092512996363521E+00    7.2843726304680647E+00
H    5.2899463871896133E+00    6.4889429596084574E+00    6.3929757321026139E+00
H    4.8678252868840159E+00    6.3175211180863267E+00    4.8313586361433272E+00
H    1.1521862541305511E+01    2.1923283626798629E+00    4.2496614328180158E+00
H    1.1222791846957609E+01    7.8414795598375331E-01    4.7829538343866158E+00
H    8.8119942350222722E+00    9.6778779613703918E+00    3.9666686831543898E+00
H    9.9342844970870789E+00    1.0814156988791103E+01    3.7816372858599299E+00
H    3.1082289528956042E+00    1.0546326407174492E+01    5.2868803913859326E+00
H    4.3132584907103100E+00    1.1455620653057998E+01    5.0610780320727606E+00
H    4.2220406784300751E-01    7.3045102192445972E+00    3.8013135649940941E+00
H    2.9772343931230139E-01    5.7724401932043872E+00    3.4526995513593541E+00
H    7.5860591209723625E+00    6.5678847601551640E+00    3.2915836809348513E+00
H    6.6758385347284026E+00    5.3831754309178184E+00    2.5200133494031189E+00
H    3.8532534172205839E+00    6.3060046348704635E+00    2.8123783749707507E+00
H    2.7953246440734305E+00    6.5485847389784748E+00    3.9537741358610483E+00
H    5.5553176437610787E+00    8.0120599991629931E+00    8.6583941104726510E+00
H    6.9993930795502326E+00    7.4780238970678399E+00    8.4104344163927234E+00
H    9.5571588990614398E+00    7.3280446145769773E-01    3.0174818797265517E+00
H    8.9237164310791677E+00    1.3437510586120369E-01    4.4076447871976896E+00
H    3.8482457315665739E+00    1.1174438455171401E+01    1.3441470566657159E+00
H    3.9626056228572648E+00    1.0964278466898165E+01    3.0102551897951648E+00
H    5.9449661422376590E+00    7.8891857853090368E+00    2.7995741535955267E+00
H    4.7652120121307631E+00    8.7229381074897709E+00    3.5906717261664753E+00
H    1.0905815782848167E+01    5.5302201800693647E+00    4.9342869455825440E+00
H    9.5033245323308293E+00    4.6732708376731615E+00    4.7171193166487857E+00
H    1.1491942104117042E+01    9.0018887406786501E+00    3.3983649908362845E+00
H    1.1959903629038539E+01    8.7851547644299668E+00    4.9401026898654736E+00
H    2.9404439844277852E+00    1.1333326721638414E+01    7.4881123877727580E+00
H    1.3993518978816222E+00    1.1120275827042475E+01    6.8063456551229535E+00
H    7.2181951384387091E+00    1.2809608485285473E-01    9.7032371258685082E+00
H    7.1648660378595066E+00    1.0772078745129685E-01    1.1367500988399685E+01
H    4.8113412051054647E+00    9.3237474535608236E+00    1.0837702423612004E+01
H    6.0816481698036471E+00    9.8060697913100014E+00    1.0186927365163356E+01
H    1.0565212262638330E+01    6.7306908548554265E+00    1.0314443980528331E+01
H    1.1239043366237601E+01    5.5938377372078980E+00    9.3143651163972443E+00
H    1.2188456954752306E+01    8.9927460848984140E+00    1.0127821223537083E+01
H    1.1415764242457767E+01    8.6329965781026932E+00    8.6365688433574839E+00
     &END COORD
     &VELOCITY
           2.4353373553201395E-04   -1.2006097602678001E-04    8.6380096429073558E-05
           5.1311970177361202E-05   -1.2708266212819193E-06   -1.4048482609979264E-05
          -1.3298767757240922E-04   -8.3910828187045501E-05   -1.7227772179746796E-04
           3.2311111387642950E-04   -2.8974228281243705E-04    2.2815855771219048E-04
           3.6807112800024520E-04   -1.6540691872390898E-04    8.2168021723572136E-05
           8.6843810076527961E-05   -1.6733145784972339E-04    2.3233906169651408E-04
          -1.9144732815674212E-04    3.6490306373355455E-05    1.7692428816296104E-04
          -2.7339212137186521E-04   -2.0181330302003241E-06   -2.5185283188727077E-04
          -2.9114797156478604E-04    1.4202524656876510E-04   -9.4207613531380744E-05
           4.9604684381113800E-05    1.9764986075604659E-04   -3.9675655902543516E-05
          -1.0338266296038427E-04    2.5533554886812942E-04   -1.7753567723011795E-04
           1.2393271803204210E-04   -5.1522817965114829E-05    2.4869105054756678E-04
           3.7171385612157786E-05    1.3912087635261844E-04   -2.6001104941584326E-04
          -9.0584380437840097E-05   -5.4256969624819208E-05    1.3571849163661359E-04
          -1.3532069035041384E-05    2.9312535024545073E-04   -1.1035216194474801E-04
           3.4365663856449411E-04    1.2592891247634885E-04    1.2984947778209139E-04
           3.1061310688390630E-05   -2.1491061234623829E-04    1.3642911352216273E-04
          -1.1197980598902931E-04    8.8708519146753017E-05    8.1551359028753835E-05
           7.2553977150455664E-05   -7.4882564048173341E-05   -3.7593240429379772E-05
          -3.9311008769520961E-05    7.7794970773276565E-05   -4.9503853884031743E-05
           1.3050850736449053E-04    3.2997372843493556E-05    2.3384938882097547E-04
          -2.3506710107639993E-04   -1.3038351983439363E-04   -7.8872779762080493E-05
           2.2656471395911322E-04    3.8984618368550849E-06   -1.0674489559509387E-04
          -4.8910812396581497E-04   -8.8250996371450126E-05    4.1168871694270696E-05
          -2.3516505104761255E-04    3.0141522875234783E-05   -4.3307021526769100E-05
           2.3874077440450684E-04    1.6479626533087230E-04   -6.5961174409204385E-06
           2.1570400443832094E-06   -3.6687604474236148E-04    1.9056449024937311E-05
           1.5263290745939675E-04   -4.5423683352177343E-05   -4.7828240980392965E-05
          -2.4361660474415039E-04   -1.5799538490552149E-04    1.4701044899551163E-04
          -4.6332302276638395E-05    6.6958418741855458E-05   -1.4093723621107617E-04
           7.0402526351283801E-05    1.4787938508832485E-04    2.3294646136367626E-04
          -1.0541845847239037E-04    9.0959878374026706E-05    1.4239486316667158E-04
           3.9447066267310916E-04    6.7697585288599757E-05    1.1078543440173183E-04
          -7.7642050394428119E-05   -1.2536442818551755E-04   -1.9896428319608229E-04
           4.0834731830807633E-04    1.4767279244955840E-04    2.0697580191161521E-05
          -2.3059415804977285E-04   -1.2069261926477607E-04    1.1528847271659448E-04
          -2.2453224222871728E-04    3.2508315210059025E-04   -1.1011175869297878E-04
          -2.5223464560707217E-05    3.9102949516863953E-04    1.6353834116408737E-04
           2.2717843316266516E-05   -6.2765751655864888E-06    4.4671040031860076E-05
          -2.2749659830751190E-04   -6.9576305514572577E-06    6.3788388337379404E-05
          -7.5841302718014482E-05    8.7087799014001326E-05   -2.6939094015297657E-04
          -1.5166914072176020E-04   -1.6482446184585596E-04   -8.8619423403042824E-05
           8.3255811670233522E-06   -5.3065384631165304E-05   -7.5044278376383246E-05
           6.6403553283651107E-05    1.1865592146691777E-04   -1.6876922794205034E-04
          -3.6854176965765310E-04   -4.4916679521315301E-04   -7.2212204727447037E-05
          -1.2514834926113103E-04   -2.1658705550516415E-04    1.4279407557514101E-05
           1.5301292386239883E-04    7.8212466736048047E-05   -2.6042789655719093E-04
           1.1597437781309475E-04    1.3153166326596101E-04    1.9714489344586656E-05
          -2.7586288472256062E-05    4.9135802992905638E-05   -8.2847135186194610E-05
           1.7533037836983589E-04   -1.0200057778832086E-04   -1.5955910870878973E-05
           9.1305293482678126E-06   -1.7063363096334568E-04   -1.2704533408646016E-04
           2.0532414019942894E-04   -1.8523108331204159E-04    1.5576953259988536E-04
          -9.5082342048839009E-05    3.8898283928634844E-04    6.8143354604055417E-05
          -3.3468517684697904E-05    1.1413973594202261E-04    4.8372670606222256E-05
          -3.2167308794335157E-04   -6.7373694362996998E-05   -3.3440505798369984E-04
          -1.0565699375441413E-04   -1.8612919959366318E-04   -4.1185047197353372E-05
           3.0227443463911631E-04   -1.9476823076419183E-08   -4.0898192670417618E-05
           3.4132859751042461E-04   -7.5666618758841179E-05    3.1369871723461106E-04
           4.8774504464048499E-06    9.5432986768465621E-05    4.0463993791690842E-05
          -7.3525642131431359E-05   -1.1023344657336051E-04   -1.6990266178675464E-04
          -9.5305467322331125E-05    1.5924492797741107E-04    1.0050784054834419E-04
           2.9577992716536491E-04   -2.0302338272330716E-04   -3.8000268538897386E-06
           3.3426751499767256E-05    2.9960856876088653E-05    2.2957098672912151E-05
           2.1247046209947200E-04   -1.8773508816739387E-04   -7.1323934923626101E-05
          -4.5158839413385918E-04   -3.6143060082789448E-05   -6.1976176341055789E-04
           9.6706711087435023E-04   -4.1494673937771760E-04   -1.4270244722027743E-03
           7.4657709739159262E-04    7.4979183341712218E-04   -2.9716006652506628E-05
           1.1944835029932129E-03   -2.4887952168647063E-04   -4.6965328167566445E-04
           3.3415678178528067E-04   -4.4057529885704172E-04   -4.5347033646008606E-04
           1.1012796129933522E-03    2.9083917956952124E-04   -1.2194190254985206E-03
           2.2415342341568730E-04    1.5937251548569524E-03   -3.7781211911359957E-04
           1.0073465758447171E-03   -6.8157982681241126E-04    2.6183752025849694E-04
          -6.9769183655700486E-05    2.4841597122484123E-05   -1.3349984300866237E-04
          -6.5395783734516460E-04   -1.1729839029430743E-04    1.7209949838784382E-04
          -6.3912725034516991E-04   -9.4833908164619748E-04   -2.5753189732730417E-04
          -3.9187509728825880E-04   -2.4417797176255729E-04   -5.0822500047855053E-04
           2.8904185306780447E-04   -2.0455475311377696E-03   -7.4488003302916194E-04
           3.8533435942806997E-04   -1.5649598638882987E-03   -8.1999331589075960E-04
           6.6163782211134728E-04   -2.0530137992960304E-04   -4.7022778534970089E-04
          -4.8571775217409735E-05   -1.4283455067415174E-03    8.4970777264171894E-04
          -5.1040502072728145E-04    9.0124041077403576E-04   -4.3717828658340185E-04
           2.7962496773339013E-04    1.1112791910130552E-04   -5.6980553869903910E-04
          -1.5080494509539897E-03    7.3672779723374848E-04   -5.7541529070192262E-06
           2.4475429620197112E-04    9.7437756642290881E-04   -4.8339679943006330E-04
          -8.5981680076666018E-05    5.9512037266356264E-04   -4.8949501766149418E-05
          -6.8266467565370305E-04   -5.5567223333217878E-04    7.1350489601352141E-04
           4.8033714506997343E-05    6.5011279414916461E-04   -7.7943973949742514E-04
           8.0491911091136995E-05   -7.8343749752252947E-04    7.2435736497925571E-04
           2.5839724571687897E-04    7.5578985185100709E-05   -5.8507007757321926E-04
           3.2468632064246671E-04   -2.7324024724006534E-04    2.5249479695127458E-04
          -1.0539062839290444E-03    5.0616494373338834E-04    7.1049452486810448E-04
           8.0541579376896101E-04   -1.4428395473397820E-04   -9.1111624630585788E-04
          -9.3901405501851682E-05   -1.7440336409784484E-04   -6.6695306718267150E-04
          -5.9667439631791279E-04    2.1020879938575933E-03   -1.6524975844087297E-04
          -5.9413689338435477E-04   -1.8314218673244422E-04   -3.0878549940533231E-04
          -1.1299139623314124E-04   -1.9706794256314487E-04    5.4164798334397886E-04
           3.7379192865971851E-04   -2.2187500989786626E-04   -3.6215118741951167E-04
          -5.2111287107372509E-04    8.9091209793330198E-04   -5.6207250900607833E-04
           6.7919292606624139E-04    1.3343181453387111E-04   -5.4958333089010934E-04
          -5.0955912353037502E-05   -7.8811310899362587E-04    5.3306738439773253E-04
          -8.4615276342599698E-05   -4.3969810880000772E-04   -1.5061331385059485E-03
           1.9621493944093965E-04    7.0658921104357702E-04    7.9834173948952565E-04
          -3.1086266729488381E-04    7.4710976671524721E-04    4.9983161015694836E-04
          -7.7088036733696352E-04    8.7923124000419866E-04    4.4906439902430014E-04
           4.7843808737689199E-04    2.0885304144083893E-04    9.9081078441156409E-04
           2.7383478090869072E-04   -1.2076470171473123E-05    2.0312636572835390E-03
           2.2238602225122851E-04    4.5732113706991413E-04    2.0297495633960303E-03
          -1.3983314819755564E-04    6.4110517558773011E-04    2.3541721875220545E-04
           1.0634351963991723E-03   -8.1406755450136228E-04    2.5592615928288090E-04
           5.5764666825156917E-04   -2.4944020395756825E-04    1.0095491375646591E-03
           8.2355304834523340E-04    4.6265598281418498E-04    1.0873683440537746E-03
           1.0554542732413629E-03    1.4711843503879597E-03   -1.9257994645248441E-04
          -5.9301436634782729E-04    1.4338243179655439E-03   -1.0518598720403276E-03
           1.7009542630749589E-04   -2.7229621441675502E-04   -1.8275874435338461E-04
          -3.9794180044110751E-04    1.1377334676077764E-03    1.5111872074165464E-04
          -2.1010779021396456E-04    2.5908254734094589E-04    1.2965840741002478E-03
           5.7014687400070276E-04    4.3663748723641259E-04   -1.4622705924453242E-04
           2.7451658005990596E-04   -1.1055104188584656E-04   -2.7011911347282085E-04
          -1.5488517944008697E-03   -4.8268639177041783E-04    1.0661735519972833E-03
           1.1223093817125432E-04    6.1336181168128955E-04   -2.4337739021670652E-04
          -8.4642821008763379E-04    2.7314900747696185E-04    4.4966165018095667E-04
          -9.0281864257601247E-04    4.6471968390647761E-04   -2.6632644265709110E-04
          -1.1909602595399982E-03    3.2546725751401450E-05   -5.5177771598135365E-05
           2.6878284876341336E-04   -1.1019214431423746E-03    6.7804196597993059E-04
           3.1926309386939449E-04    1.0177813137474073E-03   -3.0847823993294249E-04
          -4.2284471691788803E-04    4.3959034011580147E-04   -8.2960000476616630E-04
           4.5763012012597562E-04   -7.2873611065851600E-04   -1.9810871953484781E-04
          -2.5435809606803308E-04   -2.9857092395228221E-04    4.0812967128794886E-04
          -1.7369381693266078E-04    6.5701533354306464E-04    1.2674523034161911E-03
           2.5615963333762957E-04   -1.0911306499324623E-06    1.1679000472785439E-03
          -1.6308109898274868E-05    1.3149337651448814E-03    1.0407917755594083E-03
           8.9763869708535979E-04   -3.3652501424925825E-04    5.8254652404951003E-04
           1.0486726918878181E-03    1.4387708623856787E-04   -1.3227328925011494E-03
          -7.1280006661829647E-04    3.7576614694114261E-04   -7.8229807966885968E-04
          -4.9597517549006587E-05    2.0943390428205160E-05   -3.3577883356260556E-04