 # Version information for this restart file 
 # current date 2023-07-31 10:50:21.810
 # current working dir /mnt/lustre/indy2lfs/work/tc047/tc047/mrnuff-cirrus/cp2k/nuff-benchmarks/H2O-64-32node
 # Program compiled at                              Thu Jun 30 12:29:55 BST 2022
 # Program compiled on                                             cirrus-login3
 # Program compiled for                                             Cirrus-intel
 # Source code revision number                                       git:e635599
 &GLOBAL
   PRINT_LEVEL  LOW
   PROJECT_NAME H2O-64
   RUN_TYPE  MD
 &END GLOBAL
 &MOTION
   &MD
     ENSEMBLE  NVE
     STEPS  10
     TIMESTEP     4.9999999999999994E-01
     STEP_START_VAL  10
     TIME_START_VAL     4.9999999999999982E+00
     ECONS_START_VAL    -1.1007588181100880E+03
     TEMPERATURE     3.0000000000000000E+02
     &AVERAGES  T
       &RESTART_AVERAGES
         ITIMES_START  1
         AVECPU     1.8443636308424174E+00
         AVEHUGONIOT     0.0000000000000000E+00
         AVETEMP_BARO     0.0000000000000000E+00
         AVEPOT    -1.1010668160173022E+03
         AVEKIN     3.0070034549340574E-01
         AVETEMP     3.3142598856011796E+02
         AVEKIN_QM     0.0000000000000000E+00
         AVETEMP_QM     0.0000000000000000E+00
         AVEVOL     1.2909542132085598E+04
         AVECELL_A     2.3458682268415796E+01
         AVECELL_B     2.3458682268415796E+01
         AVECELL_C     2.3458682268415796E+01
         AVEALPHA     9.0000000000000000E+01
         AVEBETA     9.0000000000000000E+01
         AVEGAMMA     9.0000000000000000E+01
         AVE_ECONS    -1.0896372731030283E+01
         AVE_PRESS     0.0000000000000000E+00
         AVE_PXX     0.0000000000000000E+00
       &END RESTART_AVERAGES
     &END AVERAGES
   &END MD
 &END MOTION
 &FORCE_EVAL
   METHOD  QS
   &DFT
     BASIS_SET_FILE_NAME GTH_BASIS_SETS
     POTENTIAL_FILE_NAME POTENTIAL
     &SCF
       SCF_GUESS  ATOMIC
       &OT  T
         MINIMIZER  DIIS
       &END OT
       &PRINT
         &RESTART  OFF
         &END RESTART
       &END PRINT
     &END SCF
     &QS
       EPS_DEFAULT     9.9999999999999998E-13
       EXTRAPOLATION  PS
       EXTRAPOLATION_ORDER  3
     &END QS
     &MGRID
       CUTOFF     2.8000000000000000E+02
       REL_CUTOFF     3.0000000000000000E+01
     &END MGRID
     &XC
       DENSITY_CUTOFF     1.0000000000000000E-10
       GRADIENT_CUTOFF     1.0000000000000000E-10
       TAU_CUTOFF     1.0000000000000000E-10
       &XC_FUNCTIONAL  NO_SHORTCUT
         &PADE  T
         &END PADE
       &END XC_FUNCTIONAL
     &END XC
   &END DFT
   &SUBSYS
     &CELL
       A     1.2413800000000002E+01    0.0000000000000000E+00    0.0000000000000000E+00
       B     0.0000000000000000E+00    1.2413800000000002E+01    0.0000000000000000E+00
       C     0.0000000000000000E+00    0.0000000000000000E+00    1.2413800000000002E+01
       MULTIPLE_UNIT_CELL  1 1 1
     &END CELL
     &COORD
O    1.2265692089484132E+01    1.3554390129941549E+00    1.0875425741210551E+01
O    6.4523125712781484E+00    3.7059030017229877E+00    8.6472703373291679E+00
O    7.7679434805505890E-02    2.1684363409618408E+00    8.2608499727946398E+00
O    1.2086328917682172E+01    2.6383236471457572E+00    2.1708319631147908E+00
O    1.2290563434792555E+01    4.1705987030844662E+00    1.2102197401501067E+01
O    7.2035546534508015E+00    9.4146440982925406E-01    4.7596753308530193E+00
O    8.3332259924711991E+00    7.2077559238210718E+00    4.6827252174469010E+00
O    1.2331820354972782E+01    1.1521085584601192E+01    8.0815267568455393E+00
O    3.2742305248728614E+00    4.4591006237002029E+00    9.1745323461747628E+00
O    2.8601657947011749E+00    3.7871321994317606E+00    6.5410904120531583E+00
O    1.3797135980522153E+00    6.3917883108529807E+00    5.6509499049345957E-01
O    1.8717778176467377E+00    8.6859327223321525E+00    2.0908475002933877E+00
O    3.7724126920716361E+00    1.2107291686118582E+01    8.6205990988999819E+00
O    6.4253612010426204E+00    3.6667844669336018E+00    2.7875787966086136E+00
O    1.9996801569167475E+00    1.8525818618606509E+00    4.8671305057775909E+00
O    8.2870264289442730E+00    2.4221945186201328E+00    6.9417301194041174E+00
O    5.7524965525743825E+00    3.3354063225406625E+00    1.2486444073906798E+01
O    1.1313041873264300E+01    5.6568394091371648E+00    2.2481538681309083E+00
O    4.2889086332745361E+00    2.1146774663676795E+00    1.0586400462686742E+01
O    5.3988008779579397E+00    3.3584215761667080E+00    5.4859980676065412E+00
O    6.5093803283315310E+00    1.1870555907452253E+01    7.1448610258287215E-01
O    3.2525927590518182E+00    2.3434818290720423E+00    2.4132514479860472E+00
O    8.0086796499285313E+00    6.3565335203087834E+00    7.4977752039611456E+00
O    5.9288585788256105E+00    6.5082801666041306E+00    1.2195796701642612E+01
O    1.0610385294795833E+01    1.1861264429738412E+01    1.2200574174939975E+01
O    9.3403690756568984E+00    3.6890996107165033E+00    3.5273423653475282E+00
O    1.1111278086579088E+00    5.7890355206452355E+00    6.6473009501981091E+00
O    8.0194995343333009E+00    3.3269739508473233E+00    1.0869758841489825E+01
O    1.2376084676796255E+01    9.6748049821030211E+00    1.1772442429127562E+01
O    4.2098962719503037E+00    7.0914037241390711E+00    8.1403049780540897E+00
O    3.7839656891274154E+00    8.2290488153630488E+00    1.1585038748792897E+01
O    1.1076296436002819E+01    4.5429033328724522E+00    7.8327522122957651E+00
O    1.0435269965490461E+01    8.4217711221835287E+00    1.0328413587523437E+00
O    1.9828015281274560E+00    6.4005825276165886E+00    1.0353823655978417E+01
O    4.7041682767467954E+00    5.6227133611208102E-01    5.6097237226911316E+00
O    8.7178718108894167E+00    1.2242115811187334E+01    8.0976567639231405E+00
O    2.6327341025094895E+00    1.0520521873272592E+01    8.2905623926702532E-02
O    7.2399931187466642E+00    1.0511642196931597E+01    4.2432664330029377E+00
O    2.2807064781618807E+00    2.7612056427326198E-01    1.0807250569989250E+01
O    8.8632061138830132E+00    9.4642072500216967E-01    1.3400856795973504E+00
O    1.9443088048743280E+00    8.0893935868696509E+00    7.5355059867710654E+00
O    9.6598248299585983E+00    8.0355046451627032E+00    9.8565400345211831E+00
O    1.0903669851584358E+01    8.3307153998977519E+00    6.4773146916026354E+00
O    3.5124567442237429E+00    4.8693650210822437E+00    1.5451764009707396E+00
O    7.9775830453591334E+00    8.6026723333303519E+00    1.2050849513770634E+01
O    8.3694035479504318E+00    1.0019371052443082E+01    6.6836141760227346E+00
O    5.6546743218579758E+00    6.0810664230945983E+00    5.5283846573827802E+00
O    1.1742547847645307E+01    1.6241840639033782E+00    5.0859575162073014E+00
O    9.7585719615142335E+00    9.8110347715521495E+00    3.5364867774940985E+00
O    3.9627876574399186E+00    1.0548914651573934E+01    4.6848634346388813E+00
O    9.0110847254976201E-01    6.3699180308685310E+00    4.0614677068442129E+00
O    6.8825857356122269E+00    6.4084220847946680E+00    2.5046902581441324E+00
O    3.8180799995398380E+00    6.6391276583281273E+00    3.7786506828597211E+00
O    6.5639457974901108E+00    8.3081696931558842E+00    8.8142644496197278E+00
O    9.7792965800928346E+00    1.3440562766331379E-01    3.8518038249085174E+00
O    4.1040770115656589E+00    1.1645978558721447E+01    2.2167390496174098E+00
O    5.3225394392113481E+00    8.7370879819812490E+00    2.7520568939068775E+00
O    1.0008064086737123E+01    5.3735087324373803E+00    5.3757728940150269E+00
O    1.2260297782908793E+01    8.6464340629359988E+00    3.9709777917869831E+00
O    2.3431345497117437E+00    1.0747243885368679E+01    6.8128217267251117E+00
O    7.0016612916654131E+00    6.6240597665992351E-01    1.0534341561687878E+01
O    5.1725047982212589E+00    1.0218495319125278E+01    1.0357205957141167E+01
O    1.1186316801594124E+01    5.8851524495734244E+00    1.0299193203866013E+01
O    1.2277001782589620E+01    8.9569716794263083E+00    9.0707884188586778E+00
H    1.2357840653883409E+01    2.3335995753231114E+00    1.1187202568865754E+01
H    1.1946181003855195E+01    1.5338243304132284E+00    9.8820686313885453E+00
H    5.5871540557014256E+00    3.4492983737410610E+00    9.0442905792564527E+00
H    6.8930493554864922E+00    3.0239782285785477E+00    7.9852283560211959E+00
H   -1.4374297116976748E-01    1.5098214846049469E+00    7.5263531243342641E+00
H   -3.8865416711602191E-01    3.0530974755008984E+00    7.9298823362660835E+00
H    1.2176354233155442E+01    2.9746344065061252E+00    1.1924463434416337E+00
H    1.2991627169715063E+01    2.9143170210550227E+00    2.5155346727350305E+00
H    1.1517585159654011E+01    4.3255122446511987E+00    1.1434691026735216E+01
H    1.2784953658522690E+01    5.0635466714141524E+00    1.2040055000812789E+01
H    6.9671401310545438E+00    1.7387343976992391E+00    4.1849967664921337E+00
H    6.2296009063341131E+00    6.8946782722601074E-01    5.1579113656942903E+00
H    7.7273594948725410E+00    7.2216808380973676E+00    5.4888761780282120E+00
H    9.1691701765453502E+00    6.6296086344966501E+00    4.9460727574873538E+00
H    1.2846883768257486E+01    1.1781070688351527E+01    8.9005192602382035E+00
H    1.1983330930255583E+01    1.0563456761595750E+01    8.3168613221540966E+00
H    3.5249173108189797E+00    3.8402074967254940E+00    9.9510006399909656E+00
H    2.4297337650179420E+00    4.9330989925206108E+00    9.5245628999123717E+00
H    2.1731627523293553E+00    4.5583640086439141E+00    6.3013579985292099E+00
H    2.8563500932222756E+00    3.8576048156129046E+00    7.5841394106043145E+00
H    1.1402120515029770E+00    7.1967347480543049E+00    1.1594244541624776E+00
H    2.2451038169243045E+00    6.0044688738675243E+00    1.0028737587418317E+00
H    2.8159635337997542E+00    8.9701748198764424E+00    2.2995199891605766E+00
H    1.3289544665071626E+00    8.9939926467751068E+00    2.8983257079453435E+00
H    4.4550218369062575E+00    1.1540339425003781E+01    9.1644203320315221E+00
H    3.0505860859910565E+00    1.2474023132569899E+01    9.2862357274713787E+00
H    5.8591510063949510E+00    3.4580809397757610E+00    3.6616773633305719E+00
H    5.8328342793252981E+00    3.4003555439698125E+00    1.9823495664211992E+00
H    9.5573469725989357E-01    1.6451477306438049E+00    4.8407733836331914E+00
H    2.2282991647309696E+00    2.4813299829876305E+00    5.6872650230026061E+00
H    8.4431290012365601E+00    1.6050270153556956E+00    7.5442513472478954E+00
H    8.0660702671741493E+00    2.0137128293839957E+00    6.0338191030228021E+00
H    5.2179579256218256E+00    2.8944435585818487E+00    1.1676379626019619E+01
H    6.6808372388707893E+00    3.4137338960716233E+00    1.1974227321954844E+01
H    1.0787628803144623E+01    6.5181395670620068E+00    2.0987991922631068E+00
H    1.1679773573100617E+01    5.3602522151469509E+00    1.3423877172507770E+00
H    3.4353203684185982E+00    1.5422281194349512E+00    1.0899348788954228E+01
H    4.8360131199381646E+00    1.4266306188298323E+00    1.0089887937303393E+01
H    4.3860802582006482E+00    3.3639520802577860E+00    5.6883523933796214E+00
H    5.6851424648154669E+00    4.3694414775810433E+00    5.5473743673645606E+00
H    6.2905172776223370E+00    1.1824099733751300E+01    1.7188529435634234E+00
H    5.6254822935028352E+00    1.2118652077616664E+01    3.2827489265263332E-01
H    3.5448338646070070E+00    1.3905272139797002E+00    2.1815170599093872E+00
H    2.6082617908446357E+00    2.2011793682001568E+00    3.2448585926829767E+00
H    7.1214310944132020E+00    5.8746986475789145E+00    7.5240902705281716E+00
H    8.6555160452201285E+00    5.7349833608730814E+00    7.0296645633646211E+00
H    6.0004465275671537E+00    5.6511979030149675E+00    1.1673025686979013E+01
H    6.2576534574150893E+00    6.3249880564333729E+00    1.3168261180251962E+01
H    1.1110393485507295E+01    1.2636559250997694E+01    1.1695509562618975E+01
H    1.0264574453193248E+01    1.2297166054267183E+01    1.3044673119309692E+01
H    9.9063257583756830E+00    4.0523254539290576E+00    2.7328096710810383E+00
H    8.5320976562312527E+00    3.4662435851504729E+00    2.9418258347991020E+00
H    1.4549325922345251E+00    6.6684406032659824E+00    7.1063381287433298E+00
H    1.0013233336704235E+00    6.1758231958594472E+00    5.6553319488929219E+00
H    7.9834584102617168E+00    3.6965662970351030E+00    9.9295362401113447E+00
H    8.0702893407917262E+00    2.3148727995366554E+00    1.0750118168091108E+01
H    1.1741851247337827E+01    1.0457041172522652E+01    1.2099135806993631E+01
H    1.2145140467197523E+01    8.9346530857758744E+00    1.2412210742862008E+01
H    3.3373535314764977E+00    7.6121200308662589E+00    7.8531045761946991E+00
H    3.8438071109324685E+00    6.2417161568842490E+00    8.6114175129825021E+00
H    3.1132077807654612E+00    7.6196920981175404E+00    1.1070308623798363E+01
H    4.4752997918983368E+00    7.6309327249724870E+00    1.2076616644958509E+01
H    1.1595109347939326E+01    4.9846383472193798E+00    7.0588447442727444E+00
H    1.0300198428128139E+01    4.1359917521753058E+00    7.3179795841165971E+00
H    1.0066803629044754E+01    8.9449101926889565E+00    1.8648409458419928E+00
H    9.5721275817993394E+00    8.2654871620121391E+00    4.9820470823205154E-01
H    1.3188214514379006E+00    6.6901027276286760E+00    9.6503048603175188E+00
H    1.4021624816955307E+00    6.4512365186856835E+00    1.1227722789146927E+01
H    4.1225373888740933E+00    1.3301382656581391E+00    5.2661059713501919E+00
H    4.6863100279907037E+00    6.4323888153827746E-01    6.6181558656213229E+00
H    9.4703533710558325E+00    1.2334177792059876E+01    8.7409520154274549E+00
H    8.8486737260991148E+00    1.1353175343936583E+01    7.5414016813710703E+00
H    1.7346635260608507E+00    1.0023247752457952E+01    1.4531246290770097E-01
H    3.3374323737188938E+00    9.8445600332822298E+00   -2.3573946363385012E-01
H    7.0505799823408672E+00    1.1506005604268413E+01    4.1255571139615039E+00
H    6.4716019298290117E+00    9.9354966266941833E+00    3.7910911532796980E+00
H    1.3268589592366327E+00    5.8377393430284563E-01    1.1128929736798190E+01
H    2.5223619020791865E+00   -5.4513600115414740E-01    1.1460522258351125E+01
H    8.7695024945570452E+00    1.8730405160132650E+00    9.9029984538912386E-01
H    8.0908940305275312E+00    3.3984351975192217E-01    9.9164117999846957E-01
H    1.1203607709236056E+00    8.3716512006956769E+00    8.1792323344819753E+00
H    2.0883187077770615E+00    8.9941496096243991E+00    7.0138877035406209E+00
H    8.9092455661185870E+00    7.7938840102037839E+00    9.2222118549464280E+00
H    9.0650442925874213E+00    8.4492400512119001E+00    1.0614283870982000E+01
H    1.0125293357177165E+01    7.6972294325243933E+00    6.4507709233869885E+00
H    1.0499855152535767E+01    9.1992705817145257E+00    6.1555311709849621E+00
H    3.4971231604232664E+00    3.9586904012084321E+00    2.1122844778216114E+00
H    4.0584146620662409E+00    4.5845739999393684E+00    7.4299547661102694E-01
H    7.3547300979717445E+00    9.3907717765822820E+00    1.2034662471092760E+01
H    7.3341917810683199E+00    7.7711469163731577E+00    1.2054219542749024E+01
H    7.8271815569082195E+00    1.0161811172290458E+01    5.7814619639483986E+00
H    7.7120113817879821E+00    9.5092512996364587E+00    7.2843726304679208E+00
H    5.2899463871864825E+00    6.4889429596066082E+00    6.3929757321026841E+00
H    4.8678252868827601E+00    6.3175211180851782E+00    4.8313586361446177E+00
H    1.1521862541305600E+01    2.1923283626800090E+00    4.2496614328177236E+00
H    1.1222791846956806E+01    7.8414795598427256E-01    4.7829538343864826E+00
H    8.8119942350203555E+00    9.6778779613702923E+00    3.9666686831525761E+00
H    9.9342844970890400E+00    1.0814156988789851E+01    3.7816372858610765E+00
H    3.1082289528959142E+00    1.0546326407174249E+01    5.2868803913857434E+00
H    4.3132584907109051E+00    1.1455620653057679E+01    5.0610780320735875E+00
H    4.2220406784285930E-01    7.3045102192443876E+00    3.8013135649933036E+00
H    2.9772343931234163E-01    5.7724401932039049E+00    3.4526995513608409E+00
H    7.5860591209737898E+00    6.5678847601543531E+00    3.2915836809337145E+00
H    6.6758385347280358E+00    5.3831754309179134E+00    2.5200133494028747E+00
H    3.8532534172200048E+00    6.3060046348693977E+00    2.8123783749705598E+00
H    2.7953246440736725E+00    6.5485847389775129E+00    3.9537741358612717E+00
H    5.5553176437609810E+00    8.0120599991639025E+00    8.6583941104699704E+00
H    6.9993930795490877E+00    7.4780238970672528E+00    8.4104344163933682E+00
H    9.5571588990610952E+00    7.3280446145722022E-01    3.0174818797264602E+00
H    8.9237164310788817E+00    1.3437510586298085E-01    4.4076447871972606E+00
H    3.8482457315698619E+00    1.1174438455170284E+01    1.3441470566656717E+00
H    3.9626056228594879E+00    1.0964278466896799E+01    3.0102551897946879E+00
H    5.9449661422364395E+00    7.8891857853081664E+00    2.7995741535964682E+00
H    4.7652120121285826E+00    8.7229381074884742E+00    3.5906717261645160E+00
H    1.0905815782848961E+01    5.5302201800696986E+00    4.9342869455826106E+00
H    9.5033245323304598E+00    4.6732708376733116E+00    4.7171193166488470E+00
H    1.1491942104116495E+01    9.0018887406796182E+00    3.3983649908379445E+00
H    1.1959903629042135E+01    8.7851547644284249E+00    4.9401026898665927E+00
H    2.9404439844273500E+00    1.1333326721638711E+01    7.4881123877733282E+00
H    1.3993518978819177E+00    1.1120275827042649E+01    6.8063456551226436E+00
H    7.2181951384366805E+00    1.2809608485390298E-01    9.7032371258677070E+00
H    7.1648660378581139E+00    1.0772078745170047E-01    1.1367500988399801E+01
H    4.8113412051061486E+00    9.3237474535603653E+00    1.0837702423611940E+01
H    6.0816481698035503E+00    9.8060697913091932E+00    1.0186927365163339E+01
H    1.0565212262639692E+01    6.7306908548571620E+00    1.0314443980527392E+01
H    1.1239043366237896E+01    5.5938377372088217E+00    9.3143651163975854E+00
H    1.2188456954750878E+01    8.9927460848962539E+00    1.0127821223536388E+01
H    1.1415764242460009E+01    8.6329965780996591E+00    8.6365688433561818E+00
     &END COORD
     &VELOCITY
           2.4353373553285287E-04   -1.2006097602571164E-04    8.6380096428720799E-05
           5.1311970178051520E-05   -1.2708266202453221E-06   -1.4048482609896380E-05
          -1.3298767757283597E-04   -8.3910828183999327E-05   -1.7227772179844087E-04
           3.2311111387227582E-04   -2.8974228281107849E-04    2.2815855771119703E-04
           3.6807112799824854E-04   -1.6540691871753840E-04    8.2168021720765679E-05
           8.6843810078752269E-05   -1.6733145785208380E-04    2.3233906169840984E-04
          -1.9144732815361165E-04    3.6490306373377715E-05    1.7692428816773801E-04
          -2.7339212137178265E-04   -2.0181330314887730E-06   -2.5185283188627092E-04
          -2.9114797156667722E-04    1.4202524657029882E-04   -9.4207613532682871E-05
           4.9604684382027383E-05    1.9764986075531210E-04   -3.9675655901196192E-05
          -1.0338266296055457E-04    2.5533554886941350E-04   -1.7753567723087475E-04
           1.2393271803095662E-04   -5.1522817961909548E-05    2.4869105054734734E-04
           3.7171385612340758E-05    1.3912087635214901E-04   -2.6001104941716306E-04
          -9.0584380439701537E-05   -5.4256969623197512E-05    1.3571849163706399E-04
          -1.3532069033693870E-05    2.9312535024611931E-04   -1.1035216194513560E-04
           3.4365663856433522E-04    1.2592891247426610E-04    1.2984947778342163E-04
           3.1061310690828634E-05   -2.1491061234654845E-04    1.3642911352173003E-04
          -1.1197980598558720E-04    8.8708519144791288E-05    8.1551359029788002E-05
           7.2553977151711821E-05   -7.4882564048172609E-05   -3.7593240431538723E-05
          -3.9311008768955441E-05    7.7794970776914822E-05   -4.9503853884566783E-05
           1.3050850736180694E-04    3.2997372836527937E-05    2.3384938882158027E-04
          -2.3506710107413533E-04   -1.3038351983330425E-04   -7.8872779759874752E-05
           2.2656471395883650E-04    3.8984618355664319E-06   -1.0674489559695321E-04
          -4.8910812396747976E-04   -8.8250996375315523E-05    4.1168871693982332E-05
          -2.3516505104176309E-04    3.0141522873499714E-05   -4.3307021530795780E-05
           2.3874077440246322E-04    1.6479626533144449E-04   -6.5961174419707865E-06
           2.1570400445881740E-06   -3.6687604473972752E-04    1.9056449024619321E-05
           1.5263290745582377E-04   -4.5423683353403081E-05   -4.7828240981004516E-05
          -2.4361660474331060E-04   -1.5799538490241652E-04    1.4701044899495758E-04
          -4.6332302280693853E-05    6.6958418738770266E-05   -1.4093723621024935E-04
           7.0402526346434829E-05    1.4787938508567029E-04    2.3294646136804589E-04
          -1.0541845847353461E-04    9.0959878371209827E-05    1.4239486316802518E-04
           3.9447066267494287E-04    6.7697585285557120E-05    1.1078543439985424E-04
          -7.7642050402697627E-05   -1.2536442817938975E-04   -1.9896428320058317E-04
           4.0834731830560571E-04    1.4767279245042955E-04    2.0697580191119054E-05
          -2.3059415805032777E-04   -1.2069261926342780E-04    1.1528847271656092E-04
          -2.2453224223001309E-04    3.2508315209557256E-04   -1.1011175869277694E-04
          -2.5223464559857727E-05    3.9102949516755582E-04    1.6353834116173026E-04
           2.2717843313736259E-05   -6.2765751657596841E-06    4.4671040027484006E-05
          -2.2749659830832402E-04   -6.9576305486562874E-06    6.3788388337865100E-05
          -7.5841302720377026E-05    8.7087799015375661E-05   -2.6939094015514687E-04
          -1.5166914071985095E-04   -1.6482446184579660E-04   -8.8619423400572117E-05
           8.3255811676572412E-06   -5.3065384628513210E-05   -7.5044278377739366E-05
           6.6403553282652787E-05    1.1865592146636379E-04   -1.6876922794192251E-04
          -3.6854176965867193E-04   -4.4916679521676681E-04   -7.2212204723233150E-05
          -1.2514834926219274E-04   -2.1658705550449311E-04    1.4279407555067211E-05
           1.5301292386756525E-04    7.8212466736928785E-05   -2.6042789655637399E-04
           1.1597437780847611E-04    1.3153166326435357E-04    1.9714489345293417E-05
          -2.7586288469427731E-05    4.9135802993050121E-05   -8.2847135186327845E-05
           1.7533037836734629E-04   -1.0200057778744144E-04   -1.5955910871023368E-05
           9.1305293490860566E-06   -1.7063363096381096E-04   -1.2704533408555938E-04
           2.0532414020204184E-04   -1.8523108330916369E-04    1.5576953260079866E-04
          -9.5082342049248445E-05    3.8898283928656766E-04    6.8143354601976134E-05
          -3.3468517683450000E-05    1.1413973594201249E-04    4.8372670605776202E-05
          -3.2167308794029618E-04   -6.7373694362748865E-05   -3.3440505798267576E-04
          -1.0565699375615659E-04   -1.8612919959466734E-04   -4.1185047195924292E-05
           3.0227443463986891E-04   -1.9476823204442284E-08   -4.0898192669447949E-05
           3.4132859750914634E-04   -7.5666618757489490E-05    3.1369871723685390E-04
           4.8774504494749911E-06    9.5432986766974098E-05    4.0463993791127185E-05
          -7.3525642131380104E-05   -1.1023344657316603E-04   -1.6990266178622796E-04
          -9.5305467321861367E-05    1.5924492797663001E-04    1.0050784054793367E-04
           2.9577992716556771E-04   -2.0302338272373192E-04   -3.8000268557786466E-06
           3.3426751496317921E-05    2.9960856876832010E-05    2.2957098674733749E-05
           2.1247046209628339E-04   -1.8773508816312718E-04   -7.1323934922323148E-05
          -4.5158839414432471E-04   -3.6143060089788379E-05   -6.1976176342477861E-04
           9.6706711087985201E-04   -4.1494673939047877E-04   -1.4270244721750049E-03
           7.4657709737371489E-04    7.4979183339891290E-04   -2.9716006609299396E-05
           1.1944835029749517E-03   -2.4887952170245318E-04   -4.6965328169479834E-04
           3.3415678177199719E-04   -4.4057529884983899E-04   -4.5347033641954688E-04
           1.1012796130013436E-03    2.9083917953702813E-04   -1.2194190254911845E-03
           2.2415342343647256E-04    1.5937251548097584E-03   -3.7781211910449742E-04
           1.0073465758377383E-03   -6.8157982680726304E-04    2.6183752026187151E-04
          -6.9769183556747319E-05    2.4841597091465797E-05   -1.3349984292958790E-04
          -6.5395783738099672E-04   -1.1729839037493623E-04    1.7209949833774595E-04
          -6.3912725033582094E-04   -9.4833908161315523E-04   -2.5753189732165098E-04
          -3.9187509730397995E-04   -2.4417797176861354E-04   -5.0822500047986773E-04
           2.8904185309448554E-04   -2.0455475311632366E-03   -7.4488003307317317E-04
           3.8533435936421160E-04   -1.5649598638788841E-03   -8.1999331591253765E-04
           6.6163782210726884E-04   -2.0530137991161987E-04   -4.7022778536632903E-04
          -4.8571775202063856E-05   -1.4283455067316869E-03    8.4970777265293209E-04
          -5.1040502071453156E-04    9.0124041076826119E-04   -4.3717828655536796E-04
           2.7962496775244775E-04    1.1112791910130255E-04   -5.6980553871132636E-04
          -1.5080494509649429E-03    7.3672779721949231E-04   -5.7541529101641986E-06
           2.4475429621925482E-04    9.7437756643518479E-04   -4.8339679945226760E-04
          -8.5981680079820003E-05    5.9512037269150503E-04   -4.8949501766024219E-05
          -6.8266467564811301E-04   -5.5567223334408180E-04    7.1350489602905380E-04
           4.8033714478693757E-05    6.5011279409743776E-04   -7.7943973949752359E-04
           8.0491911126981424E-05   -7.8343749756188536E-04    7.2435736497067349E-04
           2.5839724569498926E-04    7.5578985204077893E-05   -5.8507007759698876E-04
           3.2468632066981132E-04   -2.7324024726093650E-04    2.5249479693824665E-04
          -1.0539062839283291E-03    5.0616494373835843E-04    7.1049452485173921E-04
           8.0541579377560696E-04   -1.4428395474091991E-04   -9.1111624630205775E-04
          -9.3901405516174562E-05   -1.7440336409683211E-04   -6.6695306718875681E-04
          -5.9667439631628291E-04    2.1020879938473780E-03   -1.6524975842908035E-04
          -5.9413689339100114E-04   -1.8314218672694593E-04   -3.0878549942636507E-04
          -1.1299139621624084E-04   -1.9706794254736152E-04    5.4164798336424542E-04
           3.7379192865320186E-04   -2.2187500988376130E-04   -3.6215118743082076E-04
          -5.2111287107828698E-04    8.9091209793082837E-04   -5.6207250899654082E-04
           6.7919292602740798E-04    1.3343181455984334E-04   -5.4958333089323813E-04
          -5.0955912349179951E-05   -7.8811310900758118E-04    5.3306738437252548E-04
          -8.4615276359137332E-05   -4.3969810880579681E-04   -1.5061331385229837E-03
           1.9621493944994522E-04    7.0658921104736153E-04    7.9834173948285184E-04
          -3.1086266728905845E-04    7.4710976671578540E-04    4.9983161017978209E-04
          -7.7088036735346432E-04    8.7923123996338712E-04    4.4906439901610894E-04
           4.7843808738168064E-04    2.0885304148635970E-04    9.9081078439749309E-04
           2.7383478092153315E-04   -1.2076470151070325E-05    2.0312636572845208E-03
           2.2238602224324846E-04    4.5732113704388883E-04    2.0297495633759188E-03
          -1.3983314819831797E-04    6.4110517559041807E-04    2.3541721874190537E-04
           1.0634351964380570E-03   -8.1406755448416152E-04    2.5592615931290848E-04
           5.5764666823160923E-04   -2.4944020397249181E-04    1.0095491375871402E-03
           8.2355304836457307E-04    4.6265598283425953E-04    1.0873683440571268E-03
           1.0554542732529536E-03    1.4711843503844530E-03   -1.9257994643800930E-04
          -5.9301436637636783E-04    1.4338243179429771E-03   -1.0518598720317095E-03
           1.7009542630656689E-04   -2.7229621441268980E-04   -1.8275874433343391E-04
          -3.9794180044749926E-04    1.1377334676104976E-03    1.5111872073590558E-04
          -2.1010779019469642E-04    2.5908254733100533E-04    1.2965840741164072E-03
           5.7014687397300779E-04    4.3663748722973001E-04   -1.4622705925154187E-04
           2.7451658005763451E-04   -1.1055104187889710E-04   -2.7011911347735380E-04
          -1.5488517943869373E-03   -4.8268639176808658E-04    1.0661735519848655E-03
           1.1223093818624113E-04    6.1336181166302248E-04   -2.4337739021313399E-04
          -8.4642821008980935E-04    2.7314900747669671E-04    4.4966165017140691E-04
          -9.0281864258762504E-04    4.6471968392026422E-04   -2.6632644267663965E-04
          -1.1909602595150367E-03    3.2546725725918376E-05   -5.5177771586021004E-05
           2.6878284878197782E-04   -1.1019214430874999E-03    6.7804196597110540E-04
           3.1926309391772356E-04    1.0177813137804278E-03   -3.0847823993399763E-04
          -4.2284471691930481E-04    4.3959034012074007E-04   -8.2960000477755270E-04
           4.5763012015121482E-04   -7.2873611064320587E-04   -1.9810871957563842E-04
          -2.5435809608810887E-04   -2.9857092394523771E-04    4.0812967129070057E-04
          -1.7369381695228915E-04    6.5701533357459985E-04    1.2674523034461717E-03
           2.5615963331987018E-04   -1.0911306546462074E-06    1.1679000472548534E-03
          -1.6308109798916629E-05    1.3149337650961554E-03    1.0407917756977169E-03
           8.9763869714283822E-04   -3.3652501427677888E-04    5.8254652396621685E-04
           1.0486726919075409E-03    1.4387708622154479E-04   -1.3227328924869048E-03
          -7.1280006662604429E-04    3.7576614692730158E-04   -7.8229807968429688E-04
          -4.9597517514519993E-05    2.0943390441994029E-05   -3.3577883352973813E-04