 # Version information for this restart file 
 # current date 2023-08-03 14:52:59.294
 # current working dir /mnt/lustre/indy2lfs/work/tc047/tc047/mrnuff-cirrus/cp2k/nuff-benchmarks/H2O-64-32node
 # Program compiled at                               Wed Aug 2 15:51:15 BST 2023
 # Program compiled on                                             cirrus-login2
 # Program compiled for                                             Cirrus-intel
 # Source code revision number                                       git:d8d7100
 &GLOBAL
   PRINT_LEVEL  LOW
   PROJECT_NAME H2O-64
   RUN_TYPE  MD
 &END GLOBAL
 &MOTION
   &MD
     ENSEMBLE  NVE
     STEPS  10
     TIMESTEP     4.9999999999999994E-01
     STEP_START_VAL  10
     TIME_START_VAL     4.9999999999999982E+00
     ECONS_START_VAL    -1.1007623251464661E+03
     TEMPERATURE     3.0000000000000000E+02
     &AVERAGES  T
       &RESTART_AVERAGES
         ITIMES_START  1
         AVECPU     2.2998190526152031E+00
         AVEHUGONIOT     0.0000000000000000E+00
         AVETEMP_BARO     0.0000000000000000E+00
         AVEPOT    -1.1010668154404113E+03
         AVEKIN     3.0069890126030913E-01
         AVETEMP     3.3142439675489084E+02
         AVEKIN_QM     0.0000000000000000E+00
         AVETEMP_QM     0.0000000000000000E+00
         AVEVOL     1.2909542132085600E+04
         AVECELL_A     2.3458682268415796E+01
         AVECELL_B     2.3458682268415796E+01
         AVECELL_C     2.3458682268415796E+01
         AVEALPHA     9.0000000000000000E+01
         AVEBETA     9.0000000000000000E+01
         AVEGAMMA     9.0000000000000000E+01
         AVE_ECONS    -5.7036316892246974E+00
         AVE_PRESS     0.0000000000000000E+00
         AVE_PXX     0.0000000000000000E+00
       &END RESTART_AVERAGES
     &END AVERAGES
   &END MD
 &END MOTION
 &FORCE_EVAL
   METHOD  QS
   &DFT
     BASIS_SET_FILE_NAME GTH_BASIS_SETS
     POTENTIAL_FILE_NAME POTENTIAL
     &SCF
       SCF_GUESS  ATOMIC
       &OT  T
         MINIMIZER  DIIS
       &END OT
       &PRINT
         &RESTART  OFF
         &END RESTART
       &END PRINT
     &END SCF
     &QS
       EPS_DEFAULT     9.9999999999999998E-13
       EXTRAPOLATION  PS
       EXTRAPOLATION_ORDER  3
     &END QS
     &MGRID
       CUTOFF     2.8000000000000000E+02
       REL_CUTOFF     3.0000000000000000E+01
     &END MGRID
     &XC
       DENSITY_CUTOFF     1.0000000000000000E-10
       GRADIENT_CUTOFF     1.0000000000000000E-10
       TAU_CUTOFF     1.0000000000000000E-10
       &XC_FUNCTIONAL  NO_SHORTCUT
         &PADE  T
         &END PADE
       &END XC_FUNCTIONAL
     &END XC
   &END DFT
   &SUBSYS
     &CELL
       A     1.2413800000000002E+01    0.0000000000000000E+00    0.0000000000000000E+00
       B     0.0000000000000000E+00    1.2413800000000002E+01    0.0000000000000000E+00
       C     0.0000000000000000E+00    0.0000000000000000E+00    1.2413800000000002E+01
       MULTIPLE_UNIT_CELL  1 1 1
     &END CELL
     &COORD
O    1.2265691221627952E+01    1.3554379171424236E+00    1.0875430684012674E+01
O    6.4523069643985034E+00    3.7059062633719169E+00    8.6472636643113532E+00
O    7.7675673951357285E-02    2.1684371536246259E+00    8.2608521123256740E+00
O    1.2086330589737093E+01    2.6383252619362549E+00    2.1708326975636512E+00
O    1.2290560196510294E+01    4.1705949204699309E+00    1.2102197043947449E+01
O    7.2035596726110018E+00    9.4146485856915652E-01    4.7596718561381302E+00
O    8.3332223409533874E+00    7.2077504740972023E+00    4.6827221582126297E+00
O    1.2331825707496053E+01    1.1521085308244915E+01    8.0815299734465782E+00
O    3.2742345188961441E+00    4.4591086965600226E+00    9.1745403213676759E+00
O    2.8601595120416468E+00    3.7871245016872188E+00    6.5410915744247689E+00
O    1.3797112886110221E+00    6.3917880581901398E+00    5.6509704637624913E-01
O    1.8717761880990611E+00    8.6859262981941683E+00    2.0908519529190746E+00
O    3.7724064802103126E+00    1.2107291458155796E+01    8.6206045004981782E+00
O    6.4253589961830508E+00    3.6667889351994178E+00    2.7875811960065615E+00
O    1.9996776817698823E+00    1.8525814940777667E+00    4.8671276287696816E+00
O    8.2870232697559381E+00    2.4222003421165335E+00    6.9417328333568324E+00
O    5.7524951496893273E+00    3.3354107633528929E+00    1.2486441927304272E+01
O    1.1313051414990122E+01    5.6568428932996602E+00    2.2481541693217548E+00
O    4.2889057121707719E+00    2.1146768890845085E+00    1.0586394798004820E+01
O    5.3987998378703708E+00    3.3584238927998453E+00    5.4860023554711947E+00
O    6.5093881290544005E+00    1.1870556687544104E+01    7.1448877052672288E-01
O    3.2525895246416643E+00    2.3434817325715187E+00    2.4132492711214657E+00
O    8.0086831362982114E+00    6.3565304698358611E+00    7.4977786194835678E+00
O    5.9288605826881193E+00    6.5082868323258447E+00    1.2195795095729444E+01
O    1.0610386311436496E+01    1.1861263632461034E+01    1.2200578573099014E+01
O    9.3403643295945074E+00    3.6891058088922470E+00    3.5273419115089539E+00
O    1.1111299843541091E+00    5.7890416771150628E+00    6.6473030303814680E+00
O    8.0194980711238273E+00    3.3269761635710609E+00    1.0869760158477488E+01
O    1.2376083013546706E+01    9.6748017485164102E+00    1.1772437464201817E+01
O    4.2098973265834916E+00    7.0914059878456808E+00    8.1403049713511102E+00
O    3.7839651612970666E+00    8.2290477965538660E+00    1.1585029598452694E+01
O    1.1076298200094952E+01    4.5429098149791090E+00    7.8327544665101145E+00
O    1.0435269832523138E+01    8.4217540714630346E+00    1.0328469115847667E+00
O    1.9827956974872929E+00    6.4005653370062250E+00    1.0353833557955900E+01
O    4.7041684252649532E+00    5.6226860857455241E-01    5.6097297040744589E+00
O    8.7178686987316922E+00    1.2242114021519050E+01    8.0976596680829598E+00
O    2.6327397232809084E+00    1.0520524625894533E+01    8.2914708818932634E-02
O    7.2399912123022867E+00    1.0511639516828579E+01    4.2432763972060430E+00
O    2.2807117212627950E+00    2.7612433538577075E-01    1.0807249794939491E+01
O    8.8632074472443865E+00    9.4642167576058001E-01    1.3400870233089754E+00
O    1.9443010564853784E+00    8.0893907787970978E+00    7.5354954085064980E+00
O    9.6598268770606115E+00    8.0354923931291644E+00    9.8565408159862180E+00
O    1.0903669231891188E+01    8.3307122625610379E+00    6.4773119488925310E+00
O    3.5124665132314856E+00    4.8693737552338385E+00    1.5451810315134222E+00
O    7.9775887181865341E+00    8.6026768360209953E+00    1.2050859810705244E+01
O    8.3694028848611861E+00    1.0019375195784647E+01    6.6836126003785026E+00
O    5.6546609223314777E+00    6.0810554249666033E+00    5.5283899539327219E+00
O    1.1742552751790550E+01    1.6241883377932449E+00    5.0859546263628745E+00
O    9.7585749951473648E+00    9.8110344561912708E+00    3.5364834297913670E+00
O    3.9627902122681595E+00    1.0548916241539363E+01    4.6848631718496243E+00
O    9.0110924202400466E-01    6.3699160958047871E+00    4.0614660823326041E+00
O    6.8825876156875614E+00    6.4084176011472449E+00    2.5046872105492151E+00
O    3.8180772811827670E+00    6.6391261700161142E+00    3.7786504202964859E+00
O    6.5639467316230151E+00    8.3081673455500873E+00    8.8142645601750882E+00
O    9.7792980437880725E+00    1.3440093692241831E-01    3.8518018541300156E+00
O    4.1040698796140376E+00    1.1645975677414295E+01    2.2167371830935600E+00
O    5.3225429743821202E+00    8.7370886225245723E+00    2.7520608154201365E+00
O    1.0008058591962472E+01    5.3735029665408049E+00    5.3757689310938241E+00
O    1.2260293130221410E+01    8.6464312203550691E+00    3.9709765249998110E+00
O    2.3431385601209866E+00    1.0747244557908990E+01    6.8128199420223510E+00
O    7.0016868551874785E+00    6.6241368924081034E-01    1.0534335410490797E+01
O    5.1724988369890612E+00    1.0218489635932986E+01    1.0357201131261661E+01
O    1.1186305513789589E+01    5.8851551015740284E+00    1.0299187716035485E+01
O    1.2277001260224303E+01    8.9569800093949095E+00    9.0707829070917700E+00
H    1.2357860830731516E+01    2.3336130669253698E+00    1.1187155568543467E+01
H    1.1946220241711115E+01    1.5338173488076441E+00    9.8820453883929122E+00
H    5.5871853426087323E+00    3.4492613541409827E+00    9.0443492587054131E+00
H    6.8931134907708547E+00    3.0239505626690808E+00    7.9852740730676866E+00
H   -1.4374932807742563E-01    1.5098328419612013E+00    7.5263433502056500E+00
H   -3.8863081470379962E-01    3.0530889725931449E+00    7.9297897962463306E+00
H    1.2176296489828596E+01    2.9747369580385881E+00    1.1924332874809640E+00
H    1.2991672705128623E+01    2.9142153785983225E+00    2.5155247900315594E+00
H    1.1517567593231581E+01    4.3255900368445790E+00    1.1434680677253082E+01
H    1.2784986513018300E+01    5.0635244336048073E+00    1.2040091012078939E+01
H    6.9670622346702222E+00    1.7387225601620491E+00    4.1850000735928958E+00
H    6.2296039666327436E+00    6.8947303211106503E-01    5.1579542956582527E+00
H    7.7273735081133763E+00    7.2217674062563741E+00    5.4888583172761258E+00
H    9.1692072167870080E+00    6.6296203275139760E+00    4.9460943069401733E+00
H    1.2846855747609769E+01    1.1781022044301064E+01    8.9005547148165505E+00
H    1.1983278974113849E+01    1.0563476629178274E+01    8.3168526530917202E+00
H    3.5248483355810682E+00    3.8400890178712674E+00    9.9509258876191886E+00
H    2.4297317699946301E+00    4.9331020171899276E+00    9.5245232744318216E+00
H    2.1731938184002888E+00    4.5584091436371592E+00    6.3013341591593601E+00
H    2.8564526256042759E+00    3.8576860117975955E+00    7.5841383258268351E+00
H    1.1402539117556234E+00    7.1967454275138829E+00    1.1594208983718384E+00
H    2.2451171240553314E+00    6.0044560574518595E+00    1.0028292980711346E+00
H    2.8160026093261381E+00    8.9701473038209034E+00    2.2994247561326939E+00
H    1.3289450005949519E+00    8.9940773536407530E+00    2.8983100092883434E+00
H    4.4550591679045075E+00    1.1540320632851660E+01    9.1643576662467687E+00
H    3.0505711472948978E+00    1.2474005028879764E+01    9.2862522483548915E+00
H    5.8591666421268025E+00    3.4580100700777305E+00    3.6616851024565289E+00
H    5.8328742264890714E+00    3.4002922178484711E+00    1.9823307374078143E+00
H    9.5572611639008787E-01    1.6451712168319244E+00    4.8407909619530276E+00
H    2.2283444181418699E+00    2.4812713852571364E+00    5.6873030305149586E+00
H    8.4431245059905145E+00    1.6049877318591372E+00    7.5442116124546565E+00
H    8.0660994841681344E+00    2.0136933689786152E+00    6.0338203198000935E+00
H    5.2179741117744260E+00    2.8944033191692258E+00    1.1676399084693275E+01
H    6.6808709760187694E+00    3.4137078887782235E+00    1.1974300217660659E+01
H    1.0787579562973283E+01    6.5181197889746043E+00    2.0988579269067555E+00
H    1.1679706778665258E+01    5.3602110737704338E+00    1.3423727078773231E+00
H    3.4353057955581283E+00    1.5422699911175861E+00    1.0899340815425486E+01
H    4.8360485702943130E+00    1.4266340285648529E+00    1.0089916384864575E+01
H    4.3860607829044405E+00    3.3639145070867227E+00    5.6882685052589999E+00
H    5.6851714190644342E+00    4.3694444329675370E+00    5.5474154036562497E+00
H    6.2904804048388163E+00    1.1824217953334495E+01    1.7188480100641834E+00
H    5.6254641812454445E+00    1.2118531010247391E+01    3.2824508347044390E-01
H    3.5448573483475410E+00    1.3905341519237420E+00    2.1815279666969278E+00
H    2.6083113748095332E+00    2.2011598085361839E+00    3.2448945681041308E+00
H    7.1214218837231744E+00    5.8747071446836161E+00    7.5240572137576516E+00
H    8.6555160568689775E+00    5.7350202337791591E+00    7.0296204332790539E+00
H    6.0003836070027816E+00    5.6511562312008037E+00    1.1673082486798789E+01
H    6.2576732802191151E+00    6.3249637437984196E+00    1.3168254323635370E+01
H    1.1110396422511171E+01    1.2636582150483704E+01    1.1695466243762908E+01
H    1.0264522667314354E+01    1.2297177086809773E+01    1.3044653989288586E+01
H    9.9063833653605720E+00    4.0522743932580374E+00    2.7328440010558186E+00
H    8.5320879706476003E+00    3.4662362318689137E+00    2.9418373706986847E+00
H    1.4550165199540459E+00    6.6684268578473702E+00    7.1063081480778170E+00
H    1.0011846960112900E+00    6.1757849888512499E+00    5.6553257210840249E+00
H    7.9834383168153078E+00    3.6965600156460834E+00    9.9295254035483271E+00
H    8.0703050731562875E+00    2.3148761700540290E+00    1.0750109953178491E+01
H    1.1741856955038454E+01    1.0457046792693832E+01    1.2099116522328682E+01
H    1.2145113035773136E+01    8.9347057518292363E+00    1.2412278015077236E+01
H    3.3373441398219277E+00    7.6121189967397695E+00    7.8531113790447042E+00
H    3.8437404997803535E+00    6.2417170006997225E+00    8.6113781620860070E+00
H    3.1132048694105192E+00    7.6196674890888128E+00    1.1070334639356142E+01
H    4.4752609606006688E+00    7.6309535586690291E+00    1.2076672515555064E+01
H    1.1595109075910488E+01    4.9845971853205890E+00    7.0588086549210702E+00
H    1.0300179646157343E+01    4.1359780470031122E+00    7.3180405599938227E+00
H    1.0066859028657726E+01    8.9451142006843618E+00    1.8647420070760206E+00
H    9.5720897423752760E+00    8.2655563920177819E+00    4.9823227537654108E-01
H    1.3189876664555711E+00    6.6902311101737126E+00    9.6502228821049876E+00
H    1.4021547291054861E+00    6.4513381197008606E+00    1.1227717775738512E+01
H    4.1225227084822089E+00    1.3300958457233956E+00    5.2660310885243860E+00
H    4.6863014012486284E+00    6.4332081832331756E-01    6.6181574626619062E+00
H    9.4703739840675283E+00    1.2334173896528140E+01    8.7409121785593378E+00
H    8.8486705805521808E+00    1.1353162651343499E+01    7.5414161566641518E+00
H    1.7346243376508113E+00    1.0023269196055020E+01    1.4521089677754978E-01
H    3.3374330937771797E+00    9.8445733321798912E+00   -2.3578650080690416E-01
H    7.0506121547577374E+00    1.1505999570463816E+01    4.1254822367655315E+00
H    6.4716144239806450E+00    9.9355117782158509E+00    3.7910213271469240E+00
H    1.3268017188784733E+00    5.8361467399919342E-01    1.1128891425288726E+01
H    2.5223736851226164E+00   -5.4515284208242865E-01    1.1460505429957294E+01
H    8.7695034601088508E+00    1.8730261306347482E+00    9.9022339814292804E-01
H    8.0909040111767450E+00    3.3982611891729680E-01    9.9167137075868583E-01
H    1.1204885569469556E+00    8.3716616986636101E+00    8.1793585849232677E+00
H    2.0883466262748147E+00    8.9941815003031333E+00    7.0139251045156819E+00
H    8.9092338083700984E+00    7.7940115337034399E+00    9.2222012190835638E+00
H    9.0650360993649972E+00    8.4492997048300307E+00    1.0614237103704165E+01
H    1.0125261936622143E+01    7.6972651388059949E+00    6.4508008035740296E+00
H    1.0499882480553641E+01    9.1992905673856864E+00    6.1555510652606609E+00
H    3.4970438967312663E+00    3.9586491104198900E+00    2.1122397671539161E+00
H    4.0583866165583933E+00    4.5845492847972729E+00    7.4299433254027947E-01
H    7.3547019310357236E+00    9.3907165959530996E+00    1.2034560547161195E+01
H    7.3341204126244905E+00    7.7711803058270439E+00    1.2054181675347253E+01
H    7.8271359122354518E+00    1.0161864557797175E+01    5.7814824441733110E+00
H    7.7120973949995015E+00    9.5091968613054068E+00    7.2843865451267833E+00
H    5.2900515914212942E+00    6.4890676352474665E+00    6.3929667695951764E+00
H    4.8679125606969853E+00    6.3175498760842688E+00    4.8312977475731795E+00
H    1.1521813479056558E+01    2.1923134294362674E+00    4.2496119720281529E+00
H    1.1222779192576899E+01    7.8413521722484580E-01    4.7830452887769939E+00
H    8.8119906724498840E+00    9.6778997188629177E+00    3.9666598404564137E+00
H    9.9342635723546326E+00    1.0814166420179426E+01    3.7816690213247974E+00
H    3.1082412934275108E+00    1.0546280663961872E+01    5.2869156842280454E+00
H    4.3132121960852947E+00    1.1455647024803822E+01    5.0610955611757280E+00
H    4.2219844129785195E-01    7.3045251091106351E+00    3.8013411241077919E+00
H    2.9766507545180082E-01    5.7724531525169160E+00    3.4527167705323931E+00
H    7.5860409191411993E+00    6.5679521129191807E+00    3.2915919983252473E+00
H    6.6758593794493679E+00    5.3831662367036435E+00    2.5200074513622490E+00
H    3.8532901491625990E+00    6.3060011184121016E+00    2.8123839800106762E+00
H    2.7953202289158674E+00    6.5486583544772037E+00    3.9537589710661778E+00
H    5.5553109353382002E+00    8.0120428669698658E+00    8.6584496783238478E+00
H    6.9993998569156739E+00    7.4780307290167078E+00    8.4104207149779633E+00
H    9.5571587465051611E+00    7.3282222377264483E-01    3.0174934412138699E+00
H    8.9237161921949859E+00    1.3434744964845929E-01    4.4076415640865640E+00
H    3.8482518861387645E+00    1.1174452569524595E+01    1.3441132624695853E+00
H    3.9626527205395998E+00    1.0964284064940900E+01    3.0102559476076882E+00
H    5.9449721154889126E+00    7.8892003227196650E+00    2.7995602859867468E+00
H    4.7651318478101210E+00    8.7229145811686433E+00    3.5906365527448152E+00
H    1.0905855590462396E+01    5.5302297929427375E+00    4.9343939976040270E+00
H    9.5033533984920524E+00    4.6732861306339561E+00    4.7170650155463294E+00
H    1.1491935736740574E+01    9.0019296606963675E+00    3.3983882088426975E+00
H    1.1959938005669203E+01    8.7851571773521719E+00    4.9401248591307638E+00
H    2.9404442925204051E+00    1.1333366123652439E+01    7.4880999173577152E+00
H    1.3993361021504120E+00    1.1120249168991691E+01    6.8063795104244491E+00
H    7.2180390176113924E+00    1.2798394447463921E-01    9.7032741476542306E+00
H    7.1646531631428250E+00    1.0771817698142649E-01    1.1367537673088311E+01
H    4.8113494103453451E+00    9.3237233228421665E+00    1.0837722105749606E+01
H    6.0817040348706897E+00    9.8061889870782011E+00    1.0186961890391007E+01
H    1.0565212968845479E+01    6.7306912582546419E+00    1.0314509384118791E+01
H    1.1239212631588963E+01    5.5937306260536204E+00    9.3143955162384167E+00
H    1.2188441116721821E+01    8.9926759698751724E+00    1.0127830375806891E+01
H    1.1415745606507734E+01    8.6329943934296001E+00    8.6365927756283103E+00
     &END COORD
     &VELOCITY
           2.4352895689770286E-04   -1.2005787686811057E-04    8.6437472842941369E-05
           5.1308833496893904E-05   -1.2157267877971083E-06   -1.4102765547977509E-05
          -1.3301557325177079E-04   -8.3933401104382046E-05   -1.7228315507860254E-04
           3.2310035322863508E-04   -2.8975142829583346E-04    2.2821840321560435E-04
           3.6814672511763859E-04   -1.6545926054344035E-04    8.2260305157257606E-05
           8.6833533914392028E-05   -1.6730042257731895E-04    2.3230467888011742E-04
          -1.9151490594541729E-04    3.6505951846798616E-05    1.7677888658504989E-04
          -2.7334923677268429E-04   -2.0364577277251216E-06   -2.5180936275443156E-04
          -2.9104530009451486E-04    1.4206649360504550E-04   -9.4225803956915553E-05
           4.9611736872628897E-05    1.9755004721344177E-04   -3.9672360393070247E-05
          -1.0339976255284704E-04    2.5535991311218339E-04   -1.7751224400477320E-04
           1.2391364052877714E-04   -5.1653553927195713E-05    2.4858753532729891E-04
           3.7151260901988704E-05    1.3910103950704239E-04   -2.6002426241751738E-04
          -9.0568511029614341E-05   -5.4222395370509007E-05    1.3572623090233712E-04
          -1.3545521085786160E-05    2.9306779465230342E-04   -1.1045795169764222E-04
           3.4361721982964407E-04    1.2593016463861644E-04    1.2983789202256500E-04
           3.1082499004078860E-05   -2.1485637728395755E-04    1.3648810971750674E-04
          -1.1186997158987122E-04    8.8655851502042945E-05    8.1590272417178560E-05
           7.2533933878703161E-05   -7.4819315188915254E-05   -3.7629488888912726E-05
          -3.9322988574730913E-05    7.7713369530796377E-05   -4.9484602597766800E-05
           1.3057379766204748E-04    3.2998964297614515E-05    2.3389866014286956E-04
          -2.3509358637265211E-04   -1.3034774433801408E-04   -7.8879784829513378E-05
           2.2663974882056233E-04    3.8940882889586647E-06   -1.0672780451675405E-04
          -4.8905242918525723E-04   -8.8291554419569687E-05    4.1273297091739687E-05
          -2.3517177964272129E-04    3.0047635156147870E-05   -4.3285500883465451E-05
           2.3871849795350884E-04    1.6484647710458280E-04   -6.5701800577965991E-06
           2.1756702614006904E-06   -3.6685136593946337E-04    1.9083731501082645E-05
           1.5263277743794146E-04   -4.5406823835075319E-05   -4.7850620499955709E-05
          -2.4366711287560425E-04   -1.5793106100425180E-04    1.4697438563660288E-04
          -4.6380813505671158E-05    6.7005925797193654E-05   -1.4094312562499747E-04
           7.0386578673333982E-05    1.4790076784453252E-04    2.3286433602906224E-04
          -1.0544099119114177E-04    9.0971533134107845E-05    1.4244526952024317E-04
           3.9446322296819166E-04    6.7569172819916800E-05    1.1084316707400498E-04
          -7.7542156657807885E-05   -1.2551164720857550E-04   -1.9898819772616881E-04
           4.0834979217825590E-04    1.4764967627190826E-04    2.0705283491121331E-05
          -2.3057413576359562E-04   -1.2071393189650368E-04    1.1534324681657802E-04
          -2.2445140569536708E-04    3.2516286912535127E-04   -1.1004648482225813E-04
          -2.5249548994291947E-05    3.9104765548177416E-04    1.6361307451921855E-04
           2.2783467789449475E-05   -6.3114575281080286E-06    4.4689206318187421E-05
          -2.2749371826770199E-04   -7.0059699223754748E-06    6.3814403817071452E-05
          -7.5853164186447607E-05    8.7002441536299010E-05   -2.6945242200125208E-04
          -1.5174645296419257E-04   -1.6488710611739185E-04   -8.8599937395205088E-05
           8.3186202726521791E-06   -5.3104079059431133E-05   -7.5058533111015726E-05
           6.6500165506774535E-05    1.1873974520006435E-04   -1.6876577035673687E-04
          -3.6861210826459541E-04   -4.4905138593276194E-04   -7.2135058686621060E-05
          -1.2506938727250414E-04   -2.1650974605783293E-04    1.4245782353609083E-05
           1.5305853253070792E-04    7.8061367150097512E-05   -2.6041680607655427E-04
           1.1603170847592106E-04    1.3154101218222842E-04    1.9734889967744713E-05
          -2.7566410321435076E-05    4.9188391053341338E-05   -8.2861079403307610E-05
           1.7539773471561567E-04   -1.0194492078700445E-04   -1.5958541295734847E-05
           9.1160346885924768E-06   -1.7067102899810395E-04   -1.2704807040637658E-04
           2.0533708583770924E-04   -1.8520865666482554E-04    1.5572511016990565E-04
          -9.5059251453548182E-05    3.8900119903857554E-04    6.8133144196525359E-05
          -3.3406382324881530E-05    1.1411499707552178E-04    4.8377796709518963E-05
          -3.2166174218094148E-04   -6.7429210558466382E-05   -3.3439454031911585E-04
          -1.0567197804922123E-04   -1.8604152118410411E-04   -4.1177966912247977E-05
           3.0232555384668319E-04    4.4482756387351426E-08   -4.0954738013445713E-05
           3.4127138907783753E-04   -7.5686724692667509E-05    3.1369710523329705E-04
           4.8645208040912037E-06    9.5406277061716574E-05    4.0430203566626464E-05
          -7.3487234920370954E-05   -1.1019701265336409E-04   -1.6988167751667965E-04
          -9.5116294348314523E-05    1.5929238980005612E-04    1.0050636564796095E-04
           2.9577452115309101E-04   -2.0295534619206175E-04   -3.8717435447654104E-06
           3.3427097552983029E-05    2.9886113904368269E-05    2.3028601056097662E-05
           2.1249634917538260E-04   -1.8765388695165185E-04   -7.1382764686826638E-05
          -4.5134200614179197E-04   -3.6461998040741768E-05   -6.2014780459368425E-04
           9.6717121607476904E-04   -4.1496771604928375E-04   -1.4275705698003651E-03
           7.4612048411186785E-04    7.4926340799513801E-04   -2.8983563269379744E-05
           1.1950822730782682E-03   -2.4938163772040759E-04   -4.6955699926515824E-04
           3.3437263773469095E-04   -4.4066319731421628E-04   -4.5337897815724281E-04
           1.1011431662393404E-03    2.9139917326849679E-04   -1.2198962736646014E-03
           2.2385249971150411E-04    1.5948609342855611E-03   -3.7881054219727789E-04
           1.0079326383111850E-03   -6.8228660474144262E-04    2.6177285017080161E-04
          -7.1676772169844812E-05    2.5746464897110487E-05   -1.3520750351317170E-04
          -6.5359743159237665E-04   -1.1729133116988322E-04    1.7260386305473487E-04
          -6.3946645532065346E-04   -9.4886603545313243E-04   -2.5714998908799003E-04
          -3.9131100882150731E-04   -2.4416892644580582E-04   -5.0810873229781978E-04
           2.8831271512241353E-04   -2.0448067102075123E-03   -7.4372526402634916E-04
           3.8720872053754900E-04   -1.5659038684771188E-03   -8.1922109566896903E-04
           6.6131192184932814E-04   -2.0572267226776357E-04   -4.7008211594769451E-04
          -4.8840437587217926E-05   -1.4279618006728288E-03    8.4954144524213016E-04
          -5.1075273925118084E-04    9.0001937672686905E-04   -4.3720385364638041E-04
           2.7825781516895476E-04    1.1169167719151662E-04   -5.6938528402009244E-04
          -1.5084824930759902E-03    7.3769946902787727E-04   -6.1844046656461666E-06
           2.4538874923202606E-04    9.7494646952795197E-04   -4.8314180616819928E-04
          -8.5480359465853000E-05    5.9478416171848973E-04   -4.9304901636677443E-05
          -6.8266994505892565E-04   -5.5575566574874618E-04    7.1333097088954766E-04
           4.9456847776959767E-05    6.5025459334905127E-04   -7.7972174813182346E-04
           7.9382955316843325E-05   -7.8198264146283497E-04    7.2595378948233410E-04
           2.5852131570113445E-04    7.5469391165803828E-05   -5.8533339038893217E-04
           3.2409077359228287E-04   -2.7317136237395718E-04    2.5330976797484004E-04
          -1.0540506164913620E-03    5.0562455740814295E-04    7.1097587663449154E-04
           8.0546734662581901E-04   -1.4475933299078355E-04   -9.1148946840450965E-04
          -9.4447429199317090E-05   -1.7442565229106228E-04   -6.6682127829389927E-04
          -5.9604062242995062E-04    2.1026825326388261E-03   -1.6362959700605580E-04
          -5.9396099202604284E-04   -1.8326838203548896E-04   -3.0896384759095011E-04
          -1.1277145425795208E-04   -1.9670835968880102E-04    5.4210691563623631E-04
           3.7332633879214543E-04   -2.2247370329438540E-04   -3.6283756805424299E-04
          -5.2077706488974488E-04    8.9077612568222724E-04   -5.6184164068731287E-04
           6.7815751255889136E-04    1.3444514439627298E-04   -5.4935154403493245E-04
          -5.1310271400758382E-05   -7.8829554703893862E-04    5.3276039724196910E-04
          -8.5130409005652880E-05   -4.3984632745231161E-04   -1.5059866460088371E-03
           1.9680255627792240E-04    7.0602917217709458E-04    7.9813152563716378E-04
          -3.1120886792894431E-04    7.4703220924532204E-04    4.9930464952305101E-04
          -7.7046114692463962E-04    8.8060124139433416E-04    4.4946245364742515E-04
           4.7827412322503705E-04    2.0967831427770437E-04    9.9045583190825962E-04
           2.7338768314344312E-04   -1.2911505094470535E-05    2.0308294566645981E-03
           2.2268144216206227E-04    4.5671096290630150E-04    2.0294438627025866E-03
          -1.3963762680493523E-04    6.4107067982046878E-04    2.3590679284301195E-04
           1.0627265607043939E-03   -8.1441755638337904E-04    2.5570925291510890E-04
           5.5752905184204744E-04   -2.4904265434366372E-04    1.0092943120101683E-03
           8.2308722579952623E-04    4.6317561235086942E-04    1.0881531478852909E-03
           1.0550329244344969E-03    1.4718671462272640E-03   -1.9479088052092641E-04
          -5.9234975152514034E-04    1.4349114685498355E-03   -1.0527038082685188E-03
           1.6932613075357303E-04   -2.7170861877372682E-04   -1.8216829138415329E-04
          -3.9770868216055312E-04    1.1372230153304935E-03    1.5121550510456975E-04
          -2.1017769408694526E-04    2.5917097131071515E-04    1.2964206860189413E-03
           5.7060427920118436E-04    4.3671541263732379E-04   -1.4660693894444555E-04
           2.7365554736345386E-04   -1.1051173482163385E-04   -2.7041350585975285E-04
          -1.5490310923872304E-03   -4.8289839359908241E-04    1.0665735172140432E-03
           1.1224150504516458E-04    6.1359106771294780E-04   -2.4338314528346276E-04
          -8.4574512528128054E-04    2.7257287515196859E-04    4.4909119714452638E-04
          -9.0308194375695152E-04    4.6440059127860714E-04   -2.6541928311888481E-04
          -1.1903653561437010E-03    3.2337940589779077E-05   -5.5038916000892694E-05
           2.6854808173736223E-04   -1.1020380157694446E-03    6.7777744830602366E-04
           3.1913849412836930E-04    1.0174460215348208E-03   -3.0838829165973292E-04
          -4.2287091606470922E-04    4.3945863776473349E-04   -8.2903290422449883E-04
           4.5796851367311202E-04   -7.2851844241566220E-04   -1.9906514358893968E-04
          -2.5421516948844641E-04   -2.9861670766826673E-04    4.0880986581287761E-04
          -1.7312719899520681E-04    6.5870510361622442E-04    1.2668576802654756E-03
           2.5583564443844683E-04   -7.9678978563842254E-07    1.1677936184213856E-03
          -1.5491526839102391E-05    1.3159291771833988E-03    1.0400222974259121E-03
           8.9575808404972483E-04   -3.3563207832128402E-04    5.8434047540768385E-04
           1.0485189083723259E-03    1.4354236887710562E-04   -1.3233266899029068E-03
          -7.1283458299933791E-04    3.7647186490426395E-04   -7.8163815422761795E-04
          -5.0191624994741251E-05    2.0915573577179539E-05   -3.3662881984499853E-04