 # Version information for this restart file 
 # current date 2023-08-03 14:13:12.920
 # current working dir /mnt/lustre/indy2lfs/work/tc047/tc047/mrnuff-cirrus/cp2k/nuff-benchmarks/H2O-64-8node
 # Program compiled at                               Wed Aug 2 15:51:15 BST 2023
 # Program compiled on                                             cirrus-login2
 # Program compiled for                                             Cirrus-intel
 # Source code revision number                                       git:d8d7100
 &GLOBAL
   PRINT_LEVEL  LOW
   PROJECT_NAME H2O-64
   RUN_TYPE  MD
 &END GLOBAL
 &MOTION
   &MD
     ENSEMBLE  NVE
     STEPS  10
     TIMESTEP     4.9999999999999994E-01
     STEP_START_VAL  10
     TIME_START_VAL     4.9999999999999982E+00
     ECONS_START_VAL    -1.1007623251464624E+03
     TEMPERATURE     3.0000000000000000E+02
     &AVERAGES  T
       &RESTART_AVERAGES
         ITIMES_START  1
         AVECPU     2.4912303601158783E+00
         AVEHUGONIOT     0.0000000000000000E+00
         AVETEMP_BARO     0.0000000000000000E+00
         AVEPOT    -1.1010668154404120E+03
         AVEKIN     3.0069890126035831E-01
         AVETEMP     3.3142439675494506E+02
         AVEKIN_QM     0.0000000000000000E+00
         AVETEMP_QM     0.0000000000000000E+00
         AVEVOL     1.2909542132085600E+04
         AVECELL_A     2.3458682268415796E+01
         AVECELL_B     2.3458682268415796E+01
         AVECELL_C     2.3458682268415796E+01
         AVEALPHA     9.0000000000000000E+01
         AVEBETA     9.0000000000000000E+01
         AVEGAMMA     9.0000000000000000E+01
         AVE_ECONS    -5.7036316952453294E+00
         AVE_PRESS     0.0000000000000000E+00
         AVE_PXX     0.0000000000000000E+00
       &END RESTART_AVERAGES
     &END AVERAGES
   &END MD
 &END MOTION
 &FORCE_EVAL
   METHOD  QS
   &DFT
     BASIS_SET_FILE_NAME GTH_BASIS_SETS
     POTENTIAL_FILE_NAME POTENTIAL
     &SCF
       SCF_GUESS  ATOMIC
       &OT  T
         MINIMIZER  DIIS
       &END OT
       &PRINT
         &RESTART  OFF
         &END RESTART
       &END PRINT
     &END SCF
     &QS
       EPS_DEFAULT     9.9999999999999998E-13
       EXTRAPOLATION  PS
       EXTRAPOLATION_ORDER  3
     &END QS
     &MGRID
       CUTOFF     2.8000000000000000E+02
       REL_CUTOFF     3.0000000000000000E+01
     &END MGRID
     &XC
       DENSITY_CUTOFF     1.0000000000000000E-10
       GRADIENT_CUTOFF     1.0000000000000000E-10
       TAU_CUTOFF     1.0000000000000000E-10
       &XC_FUNCTIONAL  NO_SHORTCUT
         &PADE  T
         &END PADE
       &END XC_FUNCTIONAL
     &END XC
   &END DFT
   &SUBSYS
     &CELL
       A     1.2413800000000002E+01    0.0000000000000000E+00    0.0000000000000000E+00
       B     0.0000000000000000E+00    1.2413800000000002E+01    0.0000000000000000E+00
       C     0.0000000000000000E+00    0.0000000000000000E+00    1.2413800000000002E+01
       MULTIPLE_UNIT_CELL  1 1 1
     &END CELL
     &COORD
O    1.2265691221627915E+01    1.3554379171423991E+00    1.0875430684012713E+01
O    6.4523069643984963E+00    3.7059062633719337E+00    8.6472636643113709E+00
O    7.7675673951363711E-02    2.1684371536246254E+00    8.2608521123256065E+00
O    1.2086330589737090E+01    2.6383252619362119E+00    2.1708326975636929E+00
O    1.2290560196510288E+01    4.1705949204699744E+00    1.2102197043947434E+01
O    7.2035596726110018E+00    9.4146485856915640E-01    4.7596718561381151E+00
O    8.3332223409533661E+00    7.2077504740971774E+00    4.6827221582126128E+00
O    1.2331825707496039E+01    1.1521085308244933E+01    8.0815299734465746E+00
O    3.2742345188961566E+00    4.4591086965599978E+00    9.1745403213677239E+00
O    2.8601595120416512E+00    3.7871245016871757E+00    6.5410915744246800E+00
O    1.3797112886110112E+00    6.3917880581901301E+00    5.6509704637619607E-01
O    1.8717761880990664E+00    8.6859262981941789E+00    2.0908519529191065E+00
O    3.7724064802103627E+00    1.2107291458155812E+01    8.6206045004982190E+00
O    6.4253589961830118E+00    3.6667889351994072E+00    2.7875811960065682E+00
O    1.9996776817698489E+00    1.8525814940778285E+00    4.8671276287697447E+00
O    8.2870232697560002E+00    2.4222003421164962E+00    6.9417328333568298E+00
O    5.7524951496893468E+00    3.3354107633528987E+00    1.2486441927304270E+01
O    1.1313051414990097E+01    5.6568428932996477E+00    2.2481541693217650E+00
O    4.2889057121707594E+00    2.1146768890845067E+00    1.0586394798004838E+01
O    5.3987998378703148E+00    3.3584238927998631E+00    5.4860023554711583E+00
O    6.5093881290544289E+00    1.1870556687544113E+01    7.1448877052671422E-01
O    3.2525895246416798E+00    2.3434817325715289E+00    2.4132492711214546E+00
O    8.0086831362982220E+00    6.3565304698358727E+00    7.4977786194835785E+00
O    5.9288605826881096E+00    6.5082868323258580E+00    1.2195795095729460E+01
O    1.0610386311436525E+01    1.1861263632461062E+01    1.2200578573099007E+01
O    9.3403643295944985E+00    3.6891058088922426E+00    3.5273419115089157E+00
O    1.1111299843541278E+00    5.7890416771149411E+00    6.6473030303814875E+00
O    8.0194980711238060E+00    3.3269761635710271E+00    1.0869760158477520E+01
O    1.2376083013546674E+01    9.6748017485164173E+00    1.1772437464201868E+01
O    4.2098973265835031E+00    7.0914059878457207E+00    8.1403049713510871E+00
O    3.7839651612970209E+00    8.2290477965539122E+00    1.1585029598452728E+01
O    1.1076298200094985E+01    4.5429098149790779E+00    7.8327544665100870E+00
O    1.0435269832523144E+01    8.4217540714630736E+00    1.0328469115847514E+00
O    1.9827956974872629E+00    6.4005653370061690E+00    1.0353833557955898E+01
O    4.7041684252649638E+00    5.6226860857460137E-01    5.6097297040744731E+00
O    8.7178686987317136E+00    1.2242114021519120E+01    8.0976596680829367E+00
O    2.6327397232809249E+00    1.0520524625894494E+01    8.2914708818941585E-02
O    7.2399912123022032E+00    1.0511639516828559E+01    4.2432763972060030E+00
O    2.2807117212628505E+00    2.7612433538581022E-01    1.0807249794939521E+01
O    8.8632074472443403E+00    9.4642167576059055E-01    1.3400870233090090E+00
O    1.9443010564854148E+00    8.0893907787971919E+00    7.5354954085065202E+00
O    9.6598268770605760E+00    8.0354923931291644E+00    9.8565408159861914E+00
O    1.0903669231891211E+01    8.3307122625610148E+00    6.4773119488925177E+00
O    3.5124665132315167E+00    4.8693737552338225E+00    1.5451810315134245E+00
O    7.9775887181865457E+00    8.6026768360209775E+00    1.2050859810705282E+01
O    8.3694028848611879E+00    1.0019375195784667E+01    6.6836126003785612E+00
O    5.6546609223314324E+00    6.0810554249665962E+00    5.5283899539327352E+00
O    1.1742552751790598E+01    1.6241883377932327E+00    5.0859546263628088E+00
O    9.7585749951473737E+00    9.8110344561913081E+00    3.5364834297913004E+00
O    3.9627902122681209E+00    1.0548916241539368E+01    4.6848631718496625E+00
O    9.0110924202404552E-01    6.3699160958047898E+00    4.0614660823325348E+00
O    6.8825876156875996E+00    6.4084176011472742E+00    2.5046872105492177E+00
O    3.8180772811827404E+00    6.6391261700161186E+00    3.7786504202964970E+00
O    6.5639467316230595E+00    8.3081673455500891E+00    8.8142645601751095E+00
O    9.7792980437881205E+00    1.3440093692241939E-01    3.8518018541300290E+00
O    4.1040698796140083E+00    1.1645975677414334E+01    2.2167371830935774E+00
O    5.3225429743820829E+00    8.7370886225245794E+00    2.7520608154200965E+00
O    1.0008058591962497E+01    5.3735029665408209E+00    5.3757689310938659E+00
O    1.2260293130221443E+01    8.6464312203551010E+00    3.9709765249997853E+00
O    2.3431385601209889E+00    1.0747244557908962E+01    6.8128199420223385E+00
O    7.0016868551874252E+00    6.6241368924083255E-01    1.0534335410490785E+01
O    5.1724988369890594E+00    1.0218489635933029E+01    1.0357201131261691E+01
O    1.1186305513789558E+01    5.8851551015739414E+00    1.0299187716035540E+01
O    1.2277001260224329E+01    8.9569800093949592E+00    9.0707829070917256E+00
H    1.2357860830731864E+01    2.3336130669252970E+00    1.1187155568543576E+01
H    1.1946220241710986E+01    1.5338173488073921E+00    9.8820453883929122E+00
H    5.5871853426088256E+00    3.4492613541408459E+00    9.0443492587053882E+00
H    6.8931134907707365E+00    3.0239505626689431E+00    7.9852740730676652E+00
H   -1.4374932807753937E-01    1.5098328419610145E+00    7.5263433502058792E+00
H   -3.8863081470367544E-01    3.0530889725934984E+00    7.9297897962465678E+00
H    1.2176296489828440E+01    2.9747369580386125E+00    1.1924332874810346E+00
H    1.2991672705128654E+01    2.9142153785987905E+00    2.5155247900313435E+00
H    1.1517567593231758E+01    4.3255900368445008E+00    1.1434680677252924E+01
H    1.2784986513018286E+01    5.0635244336048482E+00    1.2040091012078930E+01
H    6.9670622346700979E+00    1.7387225601621366E+00    4.1850000735928967E+00
H    6.2296039666332446E+00    6.8947303211071831E-01    5.1579542956582207E+00
H    7.7273735081136712E+00    7.2217674062566131E+00    5.4888583172762662E+00
H    9.1692072167870684E+00    6.6296203275138783E+00    4.9460943069402958E+00
H    1.2846855747609728E+01    1.1781022044300981E+01    8.9005547148165238E+00
H    1.1983278974114086E+01    1.0563476629178348E+01    8.3168526530916349E+00
H    3.5248483355809253E+00    3.8400890178710574E+00    9.9509258876192312E+00
H    2.4297317699945329E+00    4.9331020171902207E+00    9.5245232744317949E+00
H    2.1731938184002852E+00    4.5584091436369851E+00    6.3013341591594809E+00
H    2.8564526256039802E+00    3.8576860117974521E+00    7.5841383258265154E+00
H    1.1402539117554107E+00    7.1967454275138145E+00    1.1594208983719378E+00
H    2.2451171240553625E+00    6.0044560574519590E+00    1.0028292980712621E+00
H    2.8160026093261079E+00    8.9701473038209425E+00    2.2994247561327064E+00
H    1.3289450005948644E+00    8.9940773536408098E+00    2.8983100092883256E+00
H    4.4550591679043237E+00    1.1540320632851447E+01    9.1643576662467385E+00
H    3.0505711472946109E+00    1.2474005028879670E+01    9.2862522483543692E+00
H    5.8591666421270165E+00    3.4580100700774863E+00    3.6616851024567008E+00
H    5.8328742264890492E+00    3.4002922178484596E+00    1.9823307374077159E+00
H    9.5572611638990124E-01    1.6451712168314367E+00    4.8407909619532576E+00
H    2.2283444181418939E+00    2.4812713852575170E+00    5.6873030305147534E+00
H    8.4431245059901503E+00    1.6049877318589534E+00    7.5442116124544665E+00
H    8.0660994841679710E+00    2.0136933689785179E+00    6.0338203198001761E+00
H    5.2179741117744536E+00    2.8944033191688368E+00    1.1676399084693315E+01
H    6.6808709760190288E+00    3.4137078887783008E+00    1.1974300217660389E+01
H    1.0787579562973448E+01    6.5181197889747766E+00    2.0988579269069314E+00
H    1.1679706778665460E+01    5.3602110737704551E+00    1.3423727078773340E+00
H    3.4353057955578681E+00    1.5422699911175102E+00    1.0899340815425214E+01
H    4.8360485702944311E+00    1.4266340285648658E+00    1.0089916384864567E+01
H    4.3860607829044396E+00    3.3639145070871908E+00    5.6882685052595647E+00
H    5.6851714190646501E+00    4.3694444329673905E+00    5.5474154036565544E+00
H    6.2904804048385543E+00    1.1824217953334378E+01    1.7188480100643129E+00
H    5.6254641812452775E+00    1.2118531010247395E+01    3.2824508347060855E-01
H    3.5448573483476458E+00    1.3905341519237273E+00    2.1815279666970770E+00
H    2.6083113748094067E+00    2.2011598085358317E+00    3.2448945681039292E+00
H    7.1214218837231007E+00    5.8747071446836125E+00    7.5240572137579118E+00
H    8.6555160568689633E+00    5.7350202337792426E+00    7.0296204332788088E+00
H    6.0003836070030108E+00    5.6511562312010550E+00    1.1673082486798455E+01
H    6.2576732802191097E+00    6.3249637437984090E+00    1.3168254323635368E+01
H    1.1110396422511146E+01    1.2636582150483548E+01    1.1695466243762949E+01
H    1.0264522667314266E+01    1.2297177086809659E+01    1.3044653989288507E+01
H    9.9063833653606927E+00    4.0522743932579965E+00    2.7328440010560477E+00
H    8.5320879706478063E+00    3.4662362318686712E+00    2.9418373706985470E+00
H    1.4550165199534812E+00    6.6684268578474803E+00    7.1063081480777575E+00
H    1.0011846960110511E+00    6.1757849888513832E+00    5.6553257210845249E+00
H    7.9834383168151053E+00    3.6965600156462575E+00    9.9295254035484461E+00
H    8.0703050731562200E+00    2.3148761700540232E+00    1.0750109953178439E+01
H    1.1741856955038767E+01    1.0457046792693994E+01    1.2099116522328710E+01
H    1.2145113035773255E+01    8.9347057518291066E+00    1.2412278015077110E+01
H    3.3373441398215968E+00    7.6121189967395679E+00    7.8531113790445124E+00
H    3.8437404997802336E+00    6.2417170006994436E+00    8.6113781620859147E+00
H    3.1132048694107186E+00    7.6196674890883518E+00    1.1070334639355938E+01
H    4.4752609606008775E+00    7.6309535586690380E+00    1.2076672515554961E+01
H    1.1595109075910621E+01    4.9845971853208075E+00    7.0588086549215339E+00
H    1.0300179646157227E+01    4.1359780470035235E+00    7.3180405599935847E+00
H    1.0066859028657621E+01    8.9451142006842570E+00    1.8647420070760452E+00
H    9.5720897423751961E+00    8.2655563920176611E+00    4.9823227537666342E-01
H    1.3189876664556013E+00    6.6902311101742145E+00    9.6502228821051510E+00
H    1.4021547291056189E+00    6.4513381197011181E+00    1.1227717775738506E+01
H    4.1225227084817089E+00    1.3300958457231939E+00    5.2660310885244996E+00
H    4.6863014012485511E+00    6.4332081832296384E-01    6.6181574626619391E+00
H    9.4703739840674324E+00    1.2334173896527682E+01    8.7409121785594426E+00
H    8.8486705805519748E+00    1.1353162651343476E+01    7.5414161566643383E+00
H    1.7346243376505972E+00    1.0023269196055118E+01    1.4521089677729021E-01
H    3.3374330937770855E+00    9.8445733321797171E+00   -2.3578650080696201E-01
H    7.0506121547579212E+00    1.1505999570463970E+01    4.1254822367653237E+00
H    6.4716144239808608E+00    9.9355117782159788E+00    3.7910213271467947E+00
H    1.3268017188784795E+00    5.8361467399928191E-01    1.1128891425288046E+01
H    2.5223736851221239E+00   -5.4515284208268988E-01    1.1460505429957331E+01
H    8.7695034601092576E+00    1.8730261306346618E+00    9.9022339814259830E-01
H    8.0909040111768675E+00    3.3982611891724723E-01    9.9167137075825251E-01
H    1.1204885569466010E+00    8.3716616986634360E+00    8.1793585849231736E+00
H    2.0883466262745465E+00    8.9941815003033732E+00    7.0139251045159119E+00
H    8.9092338083700593E+00    7.7940115337035580E+00    9.2222012190836420E+00
H    9.0650360993651997E+00    8.4492997048300609E+00    1.0614237103704273E+01
H    1.0125261936622138E+01    7.6972651388061966E+00    6.4508008035740367E+00
H    1.0499882480553625E+01    9.1992905673857575E+00    6.1555510652609948E+00
H    3.4970438967309172E+00    3.9586491104197279E+00    2.1122397671539259E+00
H    4.0583866165583524E+00    4.5845492847973510E+00    7.4299433254018998E-01
H    7.3547019310358506E+00    9.3907165959532453E+00    1.2034560547161004E+01
H    7.3341204126242561E+00    7.7711803058270057E+00    1.2054181675347197E+01
H    7.8271359122354083E+00    1.0161864557796701E+01    5.7814824441730899E+00
H    7.7120973949995992E+00    9.5091968613052860E+00    7.2843865451266980E+00
H    5.2900515914214834E+00    6.4890676352473609E+00    6.3929667695952919E+00
H    4.8679125606970857E+00    6.3175498760842670E+00    4.8312977475729637E+00
H    1.1521813479056137E+01    2.1923134294363100E+00    4.2496119720284566E+00
H    1.1222779192576585E+01    7.8413521722501378E-01    4.7830452887769974E+00
H    8.8119906724501114E+00    9.6778997188623421E+00    3.9666598404567677E+00
H    9.9342635723548174E+00    1.0814166420179097E+01    3.7816690213250768E+00
H    3.1082412934276804E+00    1.0546280663961825E+01    5.2869156842282026E+00
H    4.3132121960851979E+00    1.1455647024803788E+01    5.0610955611755513E+00
H    4.2219844129756784E-01    7.3045251091105854E+00    3.8013411241083168E+00
H    2.9766507545140558E-01    5.7724531525170217E+00    3.4527167705323958E+00
H    7.5860409191410909E+00    6.5679521129191185E+00    3.2915919983254636E+00
H    6.6758593794493608E+00    5.3831662367035413E+00    2.5200074513620194E+00
H    3.8532901491628571E+00    6.3060011184121842E+00    2.8123839800106625E+00
H    2.7953202289157995E+00    6.5486583544770216E+00    3.9537589710663728E+00
H    5.5553109353380421E+00    8.0120428669701980E+00    8.6584496783238496E+00
H    6.9993998569156135E+00    7.4780307290168011E+00    8.4104207149778354E+00
H    9.5571587465052996E+00    7.3282222377271478E-01    3.0174934412140959E+00
H    8.9237161921950818E+00    1.3434744964848738E-01    4.4076415640866307E+00
H    3.8482518861392170E+00    1.1174452569524464E+01    1.3441132624694294E+00
H    3.9626527205398725E+00    1.0964284064940754E+01    3.0102559476073569E+00
H    5.9449721154893629E+00    7.8892003227198906E+00    2.7995602859872153E+00
H    4.7651318478105296E+00    8.7229145811687978E+00    3.5906365527452002E+00
H    1.0905855590462341E+01    5.5302297929429773E+00    4.9343939976041105E+00
H    9.5033533984919139E+00    4.6732861306341738E+00    4.7170650155462646E+00
H    1.1491935736740285E+01    9.0019296606962946E+00    3.3983882088428712E+00
H    1.1959938005669246E+01    8.7851571773517296E+00    4.9401248591307345E+00
H    2.9404442925201124E+00    1.1333366123652478E+01    7.4880999173576210E+00
H    1.3993361021505584E+00    1.1120249168991569E+01    6.8063795104245663E+00
H    7.2180390176117539E+00    1.2798394447458780E-01    9.7032741476543372E+00
H    7.1646531631432184E+00    1.0771817698146501E-01    1.1367537673088396E+01
H    4.8113494103454144E+00    9.3237233228417242E+00    1.0837722105749188E+01
H    6.0817040348705182E+00    9.8061889870779968E+00    1.0186961890390593E+01
H    1.0565212968846195E+01    6.7306912582551890E+00    1.0314509384118644E+01
H    1.1239212631589295E+01    5.5937306260541444E+00    9.3143955162382195E+00
H    1.2188441116721807E+01    8.9926759698744227E+00    1.0127830375806731E+01
H    1.1415745606508182E+01    8.6329943934292679E+00    8.6365927756282765E+00
     &END COORD
     &VELOCITY
           2.4352895689750298E-04   -1.2005787686875323E-04    8.6437472843519099E-05
           5.1308833496800527E-05   -1.2157267873114205E-06   -1.4102765547648099E-05
          -1.3301557325167177E-04   -8.3933401104636183E-05   -1.7228315507927008E-04
           3.2310035322836940E-04   -2.8975142829629137E-04    2.2821840321583936E-04
           3.6814672511775238E-04   -1.6545926054267412E-04    8.2260305157003170E-05
           8.6833533915218041E-05   -1.6730042257713577E-04    2.3230467887961107E-04
          -1.9151490594507614E-04    3.6505951846382052E-05    1.7677888658494887E-04
          -2.7334923677294634E-04   -2.0364577278499937E-06   -2.5180936275458557E-04
          -2.9104530009439804E-04    1.4206649360472569E-04   -9.4225803956300309E-05
           4.9611736872386002E-05    1.9755004721338810E-04   -3.9672360394589770E-05
          -1.0339976255325743E-04    2.5535991311229089E-04   -1.7751224400529072E-04
           1.2391364052899217E-04   -5.1653553927009196E-05    2.4858753532780594E-04
           3.7151260902685717E-05    1.3910103950690177E-04   -2.6002426241714252E-04
          -9.0568511029945917E-05   -5.4222395370564247E-05    1.3572623090237873E-04
          -1.3545521086206777E-05    2.9306779465317122E-04   -1.1045795169633432E-04
           3.4361721983027947E-04    1.2593016463771000E-04    1.2983789202291530E-04
           3.1082499004789588E-05   -2.1485637728392356E-04    1.3648810971719712E-04
          -1.1186997159007954E-04    8.8655851502043731E-05    8.1590272417576747E-05
           7.2533933878604783E-05   -7.4819315189146270E-05   -3.7629488888826607E-05
          -3.9322988575953513E-05    7.7713369531283888E-05   -4.9484602597812106E-05
           1.3057379766209085E-04    3.2998964297759635E-05    2.3389866014266836E-04
          -2.3509358637230262E-04   -1.3034774433772238E-04   -7.8879784829833841E-05
           2.2663974882077256E-04    3.8940882891261663E-06   -1.0672780451668318E-04
          -4.8905242918535795E-04   -8.8291554418743593E-05    4.1273297092047093E-05
          -2.3517177964233843E-04    3.0047635156451047E-05   -4.3285500883777681E-05
           2.3871849795374932E-04    1.6484647710467227E-04   -6.5701800579014669E-06
           2.1756702612938440E-06   -3.6685136594121880E-04    1.9083731501500340E-05
           1.5263277743766566E-04   -4.5406823835751244E-05   -4.7850620499626714E-05
          -2.4366711287565493E-04   -1.5793106100431392E-04    1.4697438563703692E-04
          -4.6380813505612584E-05    6.7005925797886825E-05   -1.4094312562549651E-04
           7.0386578672799484E-05    1.4790076784459597E-04    2.3286433602921492E-04
          -1.0544099119060120E-04    9.0971533134073571E-05    1.4244526951985093E-04
           3.9446322296787562E-04    6.7569172820309715E-05    1.1084316707399371E-04
          -7.7542156658374922E-05   -1.2551164720879892E-04   -1.9898819772672718E-04
           4.0834979217836703E-04    1.4764967627229017E-04    2.0705283491482357E-05
          -2.3057413576349834E-04   -1.2071393189576449E-04    1.1534324681668338E-04
          -2.2445140569534607E-04    3.2516286912463878E-04   -1.1004648482226032E-04
          -2.5249548995530597E-05    3.9104765548143242E-04    1.6361307451859649E-04
           2.2783467790091502E-05   -6.3114575278542152E-06    4.4689206318285344E-05
          -2.2749371826824563E-04   -7.0059699224143129E-06    6.3814403817216098E-05
          -7.5853164186679504E-05    8.7002441537245559E-05   -2.6945242200082843E-04
          -1.5174645296449615E-04   -1.6488710611752653E-04   -8.8599937395973761E-05
           8.3186202729252015E-06   -5.3104079059675756E-05   -7.5058533111008801E-05
           6.6500165507012301E-05    1.1873974520001502E-04   -1.6876577035678837E-04
          -3.6861210826446406E-04   -4.4905138593335760E-04   -7.2135058686323961E-05
          -1.2506938727222455E-04   -2.1650974605783599E-04    1.4245782354514079E-05
           1.5305853253005323E-04    7.8061367150181700E-05   -2.6041680607634008E-04
           1.1603170847594299E-04    1.3154101218182575E-04    1.9734889966800851E-05
          -2.7566410321216857E-05    4.9188391053207249E-05   -8.2861079403991376E-05
           1.7539773471481637E-04   -1.0194492078738126E-04   -1.5958541295261515E-05
           9.1160346889000192E-06   -1.7067102899863678E-04   -1.2704807040681476E-04
           2.0533708583826517E-04   -1.8520865666372415E-04    1.5572511017021914E-04
          -9.5059251454080376E-05    3.8900119903863820E-04    6.8133144197140915E-05
          -3.3406382323649754E-05    1.1411499707523605E-04    4.8377796709507125E-05
          -3.2166174218018026E-04   -6.7429210558642280E-05   -3.3439454031875020E-04
          -1.0567197804921875E-04   -1.8604152118327651E-04   -4.1177966912008985E-05
           3.0232555384653649E-04    4.4482756456629404E-08   -4.0954738013953214E-05
           3.4127138907819439E-04   -7.5686724691938085E-05    3.1369710523423473E-04
           4.8645208041113377E-06    9.5406277062098701E-05    4.0430203566567422E-05
          -7.3487234920343916E-05   -1.1019701265398158E-04   -1.6988167751689568E-04
          -9.5116294348775309E-05    1.5929238980033611E-04    1.0050636564746031E-04
           2.9577452115313958E-04   -2.0295534619180666E-04   -3.8717435446223449E-06
           3.3427097552592046E-05    2.9886113903952396E-05    2.3028601056745930E-05
           2.1249634917605591E-04   -1.8765388695128789E-04   -7.1382764687570103E-05
          -4.5134200613898545E-04   -3.6461998036797549E-05   -6.2014780459211259E-04
           9.6717121607179583E-04   -4.1496771604868218E-04   -1.4275705698049979E-03
           7.4612048410839906E-04    7.4926340799352439E-04   -2.8983563267599613E-05
           1.1950822730802920E-03   -2.4938163772602858E-04   -4.6955699927018444E-04
           3.3437263773393976E-04   -4.4066319731000014E-04   -4.5337897815296547E-04
           1.1011431662385461E-03    2.9139917327003088E-04   -1.2198962736650800E-03
           2.2385249970908848E-04    1.5948609342856324E-03   -3.7881054219826869E-04
           1.0079326383154522E-03   -6.8228660473688453E-04    2.6177285017228057E-04
          -7.1676772167330953E-05    2.5746464896161041E-05   -1.3520750351285276E-04
          -6.5359743159584501E-04   -1.1729133117485298E-04    1.7260386305475219E-04
          -6.3946645532199451E-04   -9.4886603545259987E-04   -2.5714998908778658E-04
          -3.9131100882931291E-04   -2.4416892645148103E-04   -5.0810873229314047E-04
           2.8831271512106999E-04   -2.0448067102041994E-03   -7.4372526402256595E-04
           3.8720872053390066E-04   -1.5659038684751087E-03   -8.1922109567096960E-04
           6.6131192185053258E-04   -2.0572267226738402E-04   -4.7008211594590520E-04
          -4.8840437584426295E-05   -1.4279618006697184E-03    8.4954144524117150E-04
          -5.1075273925426073E-04    9.0001937672879644E-04   -4.3720385365010112E-04
           2.7825781517057483E-04    1.1169167719198730E-04   -5.6938528401981206E-04
          -1.5084824930717759E-03    7.3769946902105840E-04   -6.1844046645839085E-06
           2.4538874923066837E-04    9.7494646952552748E-04   -4.8314180615970082E-04
          -8.5480359468527361E-05    5.9478416171898055E-04   -4.9304901635922615E-05
          -6.8266994505288220E-04   -5.5575566575097844E-04    7.1333097089196500E-04
           4.9456847771577544E-05    6.5025459334896443E-04   -7.7972174813260267E-04
           7.9382955318673933E-05   -7.8198264146317931E-04    7.2595378947952407E-04
           2.5852131569514966E-04    7.5469391167900092E-05   -5.8533339039102197E-04
           3.2409077359073452E-04   -2.7317136237446366E-04    2.5330976797359407E-04
          -1.0540506164904435E-03    5.0562455740619009E-04    7.1097587663518803E-04
           8.0546734662557452E-04   -1.4475933299122734E-04   -9.1148946840374247E-04
          -9.4447429195788148E-05   -1.7442565229189576E-04   -6.6682127829230387E-04
          -5.9604062243448172E-04    2.1026825326342590E-03   -1.6362959701837285E-04
          -5.9396099203040599E-04   -1.8326838202822757E-04   -3.0896384759828289E-04
          -1.1277145425889709E-04   -1.9670835968921895E-04    5.4210691563580924E-04
           3.7332633879134578E-04   -2.2247370329756672E-04   -3.6283756805452662E-04
          -5.2077706489437150E-04    8.9077612568288188E-04   -5.6184164068664327E-04
           6.7815751256008702E-04    1.3444514439748867E-04   -5.4935154403475692E-04
          -5.1310271398849380E-05   -7.8829554703944841E-04    5.3276039723880106E-04
          -8.5130409004573990E-05   -4.3984632745231112E-04   -1.5059866460123948E-03
           1.9680255627573380E-04    7.0602917217890747E-04    7.9813152563922322E-04
          -3.1120886791602387E-04    7.4703220924862452E-04    4.9930464952506492E-04
          -7.7046114692389759E-04    8.8060124138835284E-04    4.4946245364868001E-04
           4.7827412322359116E-04    2.0967831427676741E-04    9.9045583191185766E-04
           2.7338768314536861E-04   -1.2911505094901741E-05    2.0308294566657890E-03
           2.2268144216437661E-04    4.5671096290310803E-04    2.0294438627007825E-03
          -1.3963762681082803E-04    6.4107067981835405E-04    2.3590679284636357E-04
           1.0627265607031271E-03   -8.1441755638470871E-04    2.5570925291698506E-04
           5.5752905184035077E-04   -2.4904265434221956E-04    1.0092943120090410E-03
           8.2308722580158979E-04    4.6317561234354536E-04    1.0881531478769131E-03
           1.0550329244353813E-03    1.4718671462263845E-03   -1.9479088051874320E-04
          -5.9234975152764029E-04    1.4349114685465578E-03   -1.0527038082657084E-03
           1.6932613075277769E-04   -2.7170861877302263E-04   -1.8216829138245275E-04
          -3.9770868216102063E-04    1.1372230153291034E-03    1.5121550510705092E-04
          -2.1017769408821911E-04    2.5917097130779713E-04    1.2964206860143353E-03
           5.7060427920271840E-04    4.3671541264937697E-04   -1.4660693893461007E-04
           2.7365554735988038E-04   -1.1051173481911967E-04   -2.7041350586827029E-04
          -1.5490310923887225E-03   -4.8289839359900831E-04    1.0665735172160110E-03
           1.1224150504417845E-04    6.1359106771983411E-04   -2.4338314528381185E-04
          -8.4574512527989612E-04    2.7257287515192630E-04    4.4909119714628209E-04
          -9.0308194375710363E-04    4.6440059128065910E-04   -2.6541928312023708E-04
          -1.1903653561446453E-03    3.2337940588505004E-05   -5.5038916002169227E-05
           2.6854808173472073E-04   -1.1020380157773153E-03    6.7777744830851874E-04
           3.1913849413193053E-04    1.0174460215345090E-03   -3.0838829165931740E-04
          -4.2287091606298528E-04    4.3945863776569816E-04   -8.2903290422505773E-04
           4.5796851366984451E-04   -7.2851844241875999E-04   -1.9906514358104162E-04
          -2.5421516948806856E-04   -2.9861670766482358E-04    4.0880986581008112E-04
          -1.7312719899424775E-04    6.5870510361300868E-04    1.2668576802611299E-03
           2.5583564444209414E-04   -7.9678978546839253E-07    1.1677936184250628E-03
          -1.5491526831986312E-05    1.3159291771848356E-03    1.0400222974349897E-03
           8.9575808404967691E-04   -3.3563207831988122E-04    5.8434047540838793E-04
           1.0485189083666872E-03    1.4354236887636839E-04   -1.3233266899019261E-03
          -7.1283458300062073E-04    3.7647186490161454E-04   -7.8163815423091165E-04
          -5.0191624994703805E-05    2.0915573574595838E-05   -3.3662881984317301E-04