 # Version information for this restart file 
 # current date 2023-08-03 14:12:37.849
 # current working dir /mnt/lustre/indy2lfs/work/tc047/tc047/mrnuff-cirrus/cp2k/nuff-benchmarks/H2O-64-8node
 # Program compiled at                               Wed Aug 2 15:51:15 BST 2023
 # Program compiled on                                             cirrus-login2
 # Program compiled for                                             Cirrus-intel
 # Source code revision number                                       git:d8d7100
 &GLOBAL
   PRINT_LEVEL  LOW
   PROJECT_NAME H2O-64
   RUN_TYPE  MD
 &END GLOBAL
 &MOTION
   &MD
     ENSEMBLE  NVE
     STEPS  10
     TIMESTEP     4.9999999999999994E-01
     STEP_START_VAL  10
     TIME_START_VAL     4.9999999999999982E+00
     ECONS_START_VAL    -1.1007623251464659E+03
     TEMPERATURE     3.0000000000000000E+02
     &AVERAGES  T
       &RESTART_AVERAGES
         ITIMES_START  1
         AVECPU     2.4588790416019037E+00
         AVEHUGONIOT     0.0000000000000000E+00
         AVETEMP_BARO     0.0000000000000000E+00
         AVEPOT    -1.1010668154404123E+03
         AVEKIN     3.0069890126036120E-01
         AVETEMP     3.3142439675494813E+02
         AVEKIN_QM     0.0000000000000000E+00
         AVETEMP_QM     0.0000000000000000E+00
         AVEVOL     1.2909542132085600E+04
         AVECELL_A     2.3458682268415796E+01
         AVECELL_B     2.3458682268415796E+01
         AVECELL_C     2.3458682268415796E+01
         AVEALPHA     9.0000000000000000E+01
         AVEBETA     9.0000000000000000E+01
         AVEGAMMA     9.0000000000000000E+01
         AVE_ECONS    -5.7036316907952971E+00
         AVE_PRESS     0.0000000000000000E+00
         AVE_PXX     0.0000000000000000E+00
       &END RESTART_AVERAGES
     &END AVERAGES
   &END MD
 &END MOTION
 &FORCE_EVAL
   METHOD  QS
   &DFT
     BASIS_SET_FILE_NAME GTH_BASIS_SETS
     POTENTIAL_FILE_NAME POTENTIAL
     &SCF
       SCF_GUESS  ATOMIC
       &OT  T
         MINIMIZER  DIIS
       &END OT
       &PRINT
         &RESTART  OFF
         &END RESTART
       &END PRINT
     &END SCF
     &QS
       EPS_DEFAULT     9.9999999999999998E-13
       EXTRAPOLATION  PS
       EXTRAPOLATION_ORDER  3
     &END QS
     &MGRID
       CUTOFF     2.8000000000000000E+02
       REL_CUTOFF     3.0000000000000000E+01
     &END MGRID
     &XC
       DENSITY_CUTOFF     1.0000000000000000E-10
       GRADIENT_CUTOFF     1.0000000000000000E-10
       TAU_CUTOFF     1.0000000000000000E-10
       &XC_FUNCTIONAL  NO_SHORTCUT
         &PADE  T
         &END PADE
       &END XC_FUNCTIONAL
     &END XC
   &END DFT
   &SUBSYS
     &CELL
       A     1.2413800000000002E+01    0.0000000000000000E+00    0.0000000000000000E+00
       B     0.0000000000000000E+00    1.2413800000000002E+01    0.0000000000000000E+00
       C     0.0000000000000000E+00    0.0000000000000000E+00    1.2413800000000002E+01
       MULTIPLE_UNIT_CELL  1 1 1
     &END CELL
     &COORD
O    1.2265691221627909E+01    1.3554379171423951E+00    1.0875430684012713E+01
O    6.4523069643985096E+00    3.7059062633719368E+00    8.6472636643113692E+00
O    7.7675673951366597E-02    2.1684371536246232E+00    8.2608521123256100E+00
O    1.2086330589737091E+01    2.6383252619362150E+00    2.1708326975636938E+00
O    1.2290560196510292E+01    4.1705949204699815E+00    1.2102197043947429E+01
O    7.2035596726110063E+00    9.4146485856915396E-01    4.7596718561381062E+00
O    8.3332223409533661E+00    7.2077504740971801E+00    4.6827221582126128E+00
O    1.2331825707496041E+01    1.1521085308244928E+01    8.0815299734465817E+00
O    3.2742345188961477E+00    4.4591086965599915E+00    9.1745403213677221E+00
O    2.8601595120416410E+00    3.7871245016871851E+00    6.5410915744246809E+00
O    1.3797112886110108E+00    6.3917880581901292E+00    5.6509704637619751E-01
O    1.8717761880990613E+00    8.6859262981941754E+00    2.0908519529191043E+00
O    3.7724064802103610E+00    1.2107291458155812E+01    8.6206045004982261E+00
O    6.4253589961830171E+00    3.6667889351994090E+00    2.7875811960065668E+00
O    1.9996776817698456E+00    1.8525814940778276E+00    4.8671276287697429E+00
O    8.2870232697559931E+00    2.4222003421165024E+00    6.9417328333568298E+00
O    5.7524951496893415E+00    3.3354107633528942E+00    1.2486441927304273E+01
O    1.1313051414990095E+01    5.6568428932996415E+00    2.2481541693217579E+00
O    4.2889057121707586E+00    2.1146768890845036E+00    1.0586394798004847E+01
O    5.3987998378703104E+00    3.3584238927998604E+00    5.4860023554711521E+00
O    6.5093881290544271E+00    1.1870556687544111E+01    7.1448877052671034E-01
O    3.2525895246416834E+00    2.3434817325715285E+00    2.4132492711214604E+00
O    8.0086831362982185E+00    6.3565304698358878E+00    7.4977786194835909E+00
O    5.9288605826881104E+00    6.5082868323258616E+00    1.2195795095729462E+01
O    1.0610386311436526E+01    1.1861263632461069E+01    1.2200578573099001E+01
O    9.3403643295944985E+00    3.6891058088922373E+00    3.5273419115089144E+00
O    1.1111299843541329E+00    5.7890416771149233E+00    6.6473030303814769E+00
O    8.0194980711238024E+00    3.3269761635710289E+00    1.0869760158477515E+01
O    1.2376083013546664E+01    9.6748017485164155E+00    1.1772437464201866E+01
O    4.2098973265834978E+00    7.0914059878457216E+00    8.1403049713510836E+00
O    3.7839651612970289E+00    8.2290477965539139E+00    1.1585029598452724E+01
O    1.1076298200094985E+01    4.5429098149790690E+00    7.8327544665100843E+00
O    1.0435269832523142E+01    8.4217540714630825E+00    1.0328469115847470E+00
O    1.9827956974872634E+00    6.4005653370061637E+00    1.0353833557955895E+01
O    4.7041684252649585E+00    5.6226860857459648E-01    5.6097297040744696E+00
O    8.7178686987317029E+00    1.2242114021519120E+01    8.0976596680829385E+00
O    2.6327397232809271E+00    1.0520524625894501E+01    8.2914708818935687E-02
O    7.2399912123022068E+00    1.0511639516828565E+01    4.2432763972059959E+00
O    2.2807117212628483E+00    2.7612433538580688E-01    1.0807249794939519E+01
O    8.8632074472443367E+00    9.4642167576059055E-01    1.3400870233090021E+00
O    1.9443010564854128E+00    8.0893907787971937E+00    7.5354954085065193E+00
O    9.6598268770605706E+00    8.0354923931291768E+00    9.8565408159861878E+00
O    1.0903669231891215E+01    8.3307122625610184E+00    6.4773119488925257E+00
O    3.5124665132315172E+00    4.8693737552338305E+00    1.5451810315134260E+00
O    7.9775887181865510E+00    8.6026768360209775E+00    1.2050859810705287E+01
O    8.3694028848611843E+00    1.0019375195784670E+01    6.6836126003785603E+00
O    5.6546609223314377E+00    6.0810554249666122E+00    5.5283899539327264E+00
O    1.1742552751790614E+01    1.6241883377932327E+00    5.0859546263628053E+00
O    9.7585749951473613E+00    9.8110344561913134E+00    3.5364834297912902E+00
O    3.9627902122681236E+00    1.0548916241539370E+01    4.6848631718496625E+00
O    9.0110924202405063E-01    6.3699160958047845E+00    4.0614660823325410E+00
O    6.8825876156875978E+00    6.4084176011472769E+00    2.5046872105492173E+00
O    3.8180772811827319E+00    6.6391261700161239E+00    3.7786504202964899E+00
O    6.5639467316230578E+00    8.3081673455500962E+00    8.8142645601751060E+00
O    9.7792980437881205E+00    1.3440093692240740E-01    3.8518018541300285E+00
O    4.1040698796140074E+00    1.1645975677414331E+01    2.2167371830935769E+00
O    5.3225429743820865E+00    8.7370886225245812E+00    2.7520608154200983E+00
O    1.0008058591962504E+01    5.3735029665408156E+00    5.3757689310938543E+00
O    1.2260293130221449E+01    8.6464312203551046E+00    3.9709765249997822E+00
O    2.3431385601209920E+00    1.0747244557908967E+01    6.8128199420223412E+00
O    7.0016868551874163E+00    6.6241368924082689E-01    1.0534335410490787E+01
O    5.1724988369890559E+00    1.0218489635933029E+01    1.0357201131261702E+01
O    1.1186305513789566E+01    5.8851551015739370E+00    1.0299187716035545E+01
O    1.2277001260224329E+01    8.9569800093949610E+00    9.0707829070917256E+00
H    1.2357860830731850E+01    2.3336130669252029E+00    1.1187155568543536E+01
H    1.1946220241711044E+01    1.5338173488074127E+00    9.8820453883929478E+00
H    5.5871853426087599E+00    3.4492613541408286E+00    9.0443492587054095E+00
H    6.8931134907708111E+00    3.0239505626689325E+00    7.9852740730676217E+00
H   -1.4374932807754046E-01    1.5098328419610720E+00    7.5263433502058694E+00
H   -3.8863081470370209E-01    3.0530889725934633E+00    7.9297897962465482E+00
H    1.2176296489828442E+01    2.9747369580385659E+00    1.1924332874810939E+00
H    1.2991672705128583E+01    2.9142153785987972E+00    2.5155247900313187E+00
H    1.1517567593231822E+01    4.3255900368445870E+00    1.1434680677252928E+01
H    1.2784986513018216E+01    5.0635244336048082E+00    1.2040091012078960E+01
H    6.9670622346701343E+00    1.7387225601621519E+00    4.1850000735929083E+00
H    6.2296039666331895E+00    6.8947303211075417E-01    5.1579542956582527E+00
H    7.7273735081136863E+00    7.2217674062565429E+00    5.4888583172762644E+00
H    9.1692072167870329E+00    6.6296203275139591E+00    4.9460943069402914E+00
H    1.2846855747609661E+01    1.1781022044301009E+01    8.9005547148164350E+00
H    1.1983278974114077E+01    1.0563476629178400E+01    8.3168526530915852E+00
H    3.5248483355809634E+00    3.8400890178710703E+00    9.9509258876192579E+00
H    2.4297317699945222E+00    4.9331020171902882E+00    9.5245232744318145E+00
H    2.1731938184002537E+00    4.5584091436370260E+00    6.3013341591595040E+00
H    2.8564526256040104E+00    3.8576860117974250E+00    7.5841383258265651E+00
H    1.1402539117553860E+00    7.1967454275137772E+00    1.1594208983719378E+00
H    2.2451171240553842E+00    6.0044560574519599E+00    1.0028292980712852E+00
H    2.8160026093260986E+00    8.9701473038210029E+00    2.2994247561326908E+00
H    1.3289450005948655E+00    8.9940773536407761E+00    2.8983100092883416E+00
H    4.4550591679043094E+00    1.1540320632851449E+01    9.1643576662466781E+00
H    3.0505711472946317E+00    1.2474005028879644E+01    9.2862522483543941E+00
H    5.8591666421270006E+00    3.4580100700774588E+00    3.6616851024567438E+00
H    5.8328742264890465E+00    3.4002922178484889E+00    1.9823307374076471E+00
H    9.5572611638972405E-01    1.6451712168314083E+00    4.8407909619532408E+00
H    2.2283444181419552E+00    2.4812713852575330E+00    5.6873030305148191E+00
H    8.4431245059902107E+00    1.6049877318589882E+00    7.5442116124544674E+00
H    8.0660994841680207E+00    2.0136933689784877E+00    6.0338203198001086E+00
H    5.2179741117744580E+00    2.8944033191689087E+00    1.1676399084693346E+01
H    6.6808709760190004E+00    3.4137078887783514E+00    1.1974300217660387E+01
H    1.0787579562973454E+01    6.5181197889747251E+00    2.0988579269069954E+00
H    1.1679706778665436E+01    5.3602110737705084E+00    1.3423727078773786E+00
H    3.4353057955578001E+00    1.5422699911175022E+00    1.0899340815425209E+01
H    4.8360485702944107E+00    1.4266340285648129E+00    1.0089916384864464E+01
H    4.3860607829045328E+00    3.3639145070871708E+00    5.6882685052595123E+00
H    5.6851714190646412E+00    4.3694444329674518E+00    5.5474154036565704E+00
H    6.2904804048386191E+00    1.1824217953334424E+01    1.7188480100643020E+00
H    5.6254641812453077E+00    1.2118531010247422E+01    3.2824508347066361E-01
H    3.5448573483476111E+00    1.3905341519237233E+00    2.1815279666970677E+00
H    2.6083113748094178E+00    2.2011598085358455E+00    3.2448945681038484E+00
H    7.1214218837231495E+00    5.8747071446835868E+00    7.5240572137578408E+00
H    8.6555160568689278E+00    5.7350202337792346E+00    7.0296204332788950E+00
H    6.0003836070030179E+00    5.6511562312010941E+00    1.1673082486798442E+01
H    6.2576732802190831E+00    6.3249637437983974E+00    1.3168254323635342E+01
H    1.1110396422511194E+01    1.2636582150483575E+01    1.1695466243762908E+01
H    1.0264522667314289E+01    1.2297177086809631E+01    1.3044653989288593E+01
H    9.9063833653607460E+00    4.0522743932580640E+00    2.7328440010560473E+00
H    8.5320879706477282E+00    3.4662362318687050E+00    2.9418373706985324E+00
H    1.4550165199535305E+00    6.6684268578474892E+00    7.1063081480778214E+00
H    1.0011846960110335E+00    6.1757849888514169E+00    5.6553257210844583E+00
H    7.9834383168150964E+00    3.6965600156463005E+00    9.9295254035484461E+00
H    8.0703050731562129E+00    2.3148761700540179E+00    1.0750109953178404E+01
H    1.1741856955038763E+01    1.0457046792694040E+01    1.2099116522328709E+01
H    1.2145113035773331E+01    8.9347057518290498E+00    1.2412278015077094E+01
H    3.3373441398216581E+00    7.6121189967395093E+00    7.8531113790445195E+00
H    3.8437404997802780E+00    6.2417170006994818E+00    8.6113781620859431E+00
H    3.1132048694107550E+00    7.6196674890883980E+00    1.1070334639355982E+01
H    4.4752609606008900E+00    7.6309535586689821E+00    1.2076672515554927E+01
H    1.1595109075910552E+01    4.9845971853208066E+00    7.0588086549215596E+00
H    1.0300179646157215E+01    4.1359780470035235E+00    7.3180405599936433E+00
H    1.0066859028657655E+01    8.9451142006842090E+00    1.8647420070761509E+00
H    9.5720897423751747E+00    8.2655563920175830E+00    4.9823227537665804E-01
H    1.3189876664555491E+00    6.6902311101742020E+00    9.6502228821051474E+00
H    1.4021547291056626E+00    6.4513381197010844E+00    1.1227717775738505E+01
H    4.1225227084817808E+00    1.3300958457232324E+00    5.2660310885245041E+00
H    4.6863014012485822E+00    6.4332081832298837E-01    6.6181574626619133E+00
H    9.4703739840674661E+00    1.2334173896527693E+01    8.7409121785594071E+00
H    8.8486705805520032E+00    1.1353162651343441E+01    7.5414161566643401E+00
H    1.7346243376507016E+00    1.0023269196055107E+01    1.4521089677740887E-01
H    3.3374330937770416E+00    9.8445733321797171E+00   -2.3578650080691699E-01
H    7.0506121547579479E+00    1.1505999570463914E+01    4.1254822367653832E+00
H    6.4716144239808875E+00    9.9355117782160409E+00    3.7910213271468436E+00
H    1.3268017188785610E+00    5.8361467399929212E-01    1.1128891425288025E+01
H    2.5223736851220835E+00   -5.4515284208260006E-01    1.1460505429957344E+01
H    8.7695034601092878E+00    1.8730261306346847E+00    9.9022339814259863E-01
H    8.0909040111768391E+00    3.3982611891724479E-01    9.9167137075826384E-01
H    1.1204885569466234E+00    8.3716616986633934E+00    8.1793585849231771E+00
H    2.0883466262745567E+00    8.9941815003034140E+00    7.0139251045158737E+00
H    8.9092338083700788E+00    7.7940115337034337E+00    9.2222012190836189E+00
H    9.0650360993651677E+00    8.4492997048300769E+00    1.0614237103704278E+01
H    1.0125261936622094E+01    7.6972651388061664E+00    6.4508008035740474E+00
H    1.0499882480553634E+01    9.1992905673857184E+00    6.1555510652609335E+00
H    3.4970438967309252E+00    3.9586491104197110E+00    2.1122397671539868E+00
H    4.0583866165583622E+00    4.5845492847973617E+00    7.4299433254015457E-01
H    7.3547019310358355E+00    9.3907165959532382E+00    1.2034560547160954E+01
H    7.3341204126242312E+00    7.7711803058269604E+00    1.2054181675347186E+01
H    7.8271359122354278E+00    1.0161864557796678E+01    5.7814824441730543E+00
H    7.7120973949996126E+00    9.5091968613052060E+00    7.2843865451267202E+00
H    5.2900515914214807E+00    6.4890676352473369E+00    6.3929667695953105E+00
H    4.8679125606971052E+00    6.3175498760841791E+00    4.8312977475730277E+00
H    1.1521813479056092E+01    2.1923134294363309E+00    4.2496119720284451E+00
H    1.1222779192576597E+01    7.8413521722502255E-01    4.7830452887770116E+00
H    8.8119906724500883E+00    9.6778997188623119E+00    3.9666598404568525E+00
H    9.9342635723548423E+00    1.0814166420179136E+01    3.7816690213251123E+00
H    3.1082412934277031E+00    1.0546280663961799E+01    5.2869156842281591E+00
H    4.3132121960851864E+00    1.1455647024803749E+01    5.0610955611755282E+00
H    4.2219844129753664E-01    7.3045251091105836E+00    3.8013411241083084E+00
H    2.9766507545144022E-01    5.7724531525170280E+00    3.4527167705323789E+00
H    7.5860409191411105E+00    6.5679521129191274E+00    3.2915919983255293E+00
H    6.6758593794493146E+00    5.3831662367035396E+00    2.5200074513619950E+00
H    3.8532901491628038E+00    6.3060011184120901E+00    2.8123839800106483E+00
H    2.7953202289157892E+00    6.5486583544770296E+00    3.9537589710663603E+00
H    5.5553109353380972E+00    8.0120428669701589E+00    8.6584496783238478E+00
H    6.9993998569156064E+00    7.4780307290167842E+00    8.4104207149778372E+00
H    9.5571587465053334E+00    7.3282222377274764E-01    3.0174934412141754E+00
H    8.9237161921950499E+00    1.3434744964855666E-01    4.4076415640866182E+00
H    3.8482518861391251E+00    1.1174452569524513E+01    1.3441132624694685E+00
H    3.9626527205398028E+00    1.0964284064940799E+01    3.0102559476073227E+00
H    5.9449721154894020E+00    7.8892003227197591E+00    2.7995602859871624E+00
H    4.7651318478104621E+00    8.7229145811687481E+00    3.5906365527452047E+00
H    1.0905855590462336E+01    5.5302297929430226E+00    4.9343939976041060E+00
H    9.5033533984919139E+00    4.6732861306341791E+00    4.7170650155463010E+00
H    1.1491935736740322E+01    9.0019296606962751E+00    3.3983882088428943E+00
H    1.1959938005669235E+01    8.7851571773516852E+00    4.9401248591307372E+00
H    2.9404442925201408E+00    1.1333366123652421E+01    7.4880999173575757E+00
H    1.3993361021505444E+00    1.1120249168991558E+01    6.8063795104245308E+00
H    7.2180390176118072E+00    1.2798394447459810E-01    9.7032741476542768E+00
H    7.1646531631432380E+00    1.0771817698146208E-01    1.1367537673088430E+01
H    4.8113494103454117E+00    9.3237233228417118E+00    1.0837722105749165E+01
H    6.0817040348705236E+00    9.8061889870779275E+00    1.0186961890390497E+01
H    1.0565212968846195E+01    6.7306912582551268E+00    1.0314509384118631E+01
H    1.1239212631589268E+01    5.5937306260541053E+00    9.3143955162382177E+00
H    1.2188441116721794E+01    8.9926759698743695E+00    1.0127830375806752E+01
H    1.1415745606508159E+01    8.6329943934292732E+00    8.6365927756281948E+00
     &END COORD
     &VELOCITY
           2.4352895689742950E-04   -1.2005787686889441E-04    8.6437472843466380E-05
           5.1308833497108332E-05   -1.2157267872554490E-06   -1.4102765547641186E-05
          -1.3301557325161461E-04   -8.3933401104637471E-05   -1.7228315507917928E-04
           3.2310035322843201E-04   -2.8975142829627159E-04    2.2821840321587294E-04
           3.6814672511774099E-04   -1.6545926054258373E-04    8.2260305156863281E-05
           8.6833533915333589E-05   -1.6730042257720779E-04    2.3230467887955331E-04
          -1.9151490594506224E-04    3.6505951846404420E-05    1.7677888658485441E-04
          -2.7334923677290607E-04   -2.0364577278960960E-06   -2.5180936275454626E-04
          -2.9104530009454061E-04    1.4206649360464050E-04   -9.4225803956311680E-05
           4.9611736872128362E-05    1.9755004721356623E-04   -3.9672360394606210E-05
          -1.0339976255323669E-04    2.5535991311223804E-04   -1.7751224400529419E-04
           1.2391364052879563E-04   -5.1653553927022674E-05    2.4858753532772441E-04
           3.7151260902613916E-05    1.3910103950698585E-04   -2.6002426241713287E-04
          -9.0568511029876989E-05   -5.4222395370579311E-05    1.3572623090232861E-04
          -1.3545521086442870E-05    2.9306779465311788E-04   -1.1045795169629285E-04
           3.4361721983019978E-04    1.2593016463791223E-04    1.2983789202283176E-04
           3.1082499004788613E-05   -2.1485637728393291E-04    1.3648810971741802E-04
          -1.1186997158999862E-04    8.8655851501823936E-05    8.1590272417558682E-05
           7.2533933878576092E-05   -7.4819315189159132E-05   -3.7629488888769544E-05
          -3.9322988575913540E-05    7.7713369531302171E-05   -4.9484602597897419E-05
           1.3057379766206887E-04    3.2998964297710473E-05    2.3389866014255706E-04
          -2.3509358637226627E-04   -1.3034774433772839E-04   -7.8879784829808051E-05
           2.2663974882067506E-04    3.8940882893936483E-06   -1.0672780451640021E-04
          -4.8905242918544686E-04   -8.8291554418654648E-05    4.1273297091985232E-05
          -2.3517177964228750E-04    3.0047635156513209E-05   -4.3285500883908782E-05
           2.3871849795374295E-04    1.6484647710457166E-04   -6.5701800578830625E-06
           2.1756702613033155E-06   -3.6685136594149148E-04    1.9083731501270706E-05
           1.5263277743761001E-04   -4.5406823835671894E-05   -4.7850620499678925E-05
          -2.4366711287573915E-04   -1.5793106100434192E-04    1.4697438563695362E-04
          -4.6380813505655770E-05    6.7005925797915611E-05   -1.4094312562549539E-04
           7.0386578672905777E-05    1.4790076784464799E-04    2.3286433602918058E-04
          -1.0544099119049845E-04    9.0971533134016054E-05    1.4244526951994528E-04
           3.9446322296784125E-04    6.7569172820428978E-05    1.1084316707394402E-04
          -7.7542156658334563E-05   -1.2551164720888157E-04   -1.9898819772680811E-04
           4.0834979217829509E-04    1.4764967627220869E-04    2.0705283491411111E-05
          -2.3057413576359478E-04   -1.2071393189573278E-04    1.1534324681662294E-04
          -2.2445140569532209E-04    3.2516286912481816E-04   -1.1004648482227805E-04
          -2.5249548995396542E-05    3.9104765548140120E-04    1.6361307451857773E-04
           2.2783467790085712E-05   -6.3114575278758509E-06    4.4689206318274834E-05
          -2.2749371826830526E-04   -7.0059699224385448E-06    6.3814403817112218E-05
          -7.5853164186653091E-05    8.7002441537220392E-05   -2.6945242200085575E-04
          -1.5174645296453604E-04   -1.6488710611745205E-04   -8.8599937396121876E-05
           8.3186202730314347E-06   -5.3104079059624744E-05   -7.5058533110934723E-05
           6.6500165507001283E-05    1.1873974520010269E-04   -1.6876577035673899E-04
          -3.6861210826440123E-04   -4.4905138593343539E-04   -7.2135058686260021E-05
          -1.2506938727232001E-04   -2.1650974605776004E-04    1.4245782354526390E-05
           1.5305853253025549E-04    7.8061367150362003E-05   -2.6041680607630946E-04
           1.1603170847614287E-04    1.3154101218193639E-04    1.9734889966789877E-05
          -2.7566410321351190E-05    4.9188391053244762E-05   -8.2861079404125410E-05
           1.7539773471487617E-04   -1.0194492078741490E-04   -1.5958541295413374E-05
           9.1160346889883681E-06   -1.7067102899858297E-04   -1.2704807040672824E-04
           2.0533708583822053E-04   -1.8520865666370846E-04    1.5572511017014734E-04
          -9.5059251454291917E-05    3.8900119903868992E-04    6.8133144197001351E-05
          -3.3406382323712801E-05    1.1411499707531298E-04    4.8377796709487352E-05
          -3.2166174218007976E-04   -6.7429210558843074E-05   -3.3439454031865056E-04
          -1.0567197804924995E-04   -1.8604152118329833E-04   -4.1177966912024340E-05
           3.0232555384654891E-04    4.4482756419687756E-08   -4.0954738013934797E-05
           3.4127138907828270E-04   -7.5686724691963780E-05    3.1369710523409205E-04
           4.8645208042994908E-06    9.5406277062093633E-05    4.0430203566559785E-05
          -7.3487234920352942E-05   -1.1019701265395064E-04   -1.6988167751692416E-04
          -9.5116294348848628E-05    1.5929238980022642E-04    1.0050636564753818E-04
           2.9577452115302889E-04   -2.0295534619179197E-04   -3.8717435445448481E-06
           3.3427097552822134E-05    2.9886113903804023E-05    2.3028601056769318E-05
           2.1249634917594066E-04   -1.8765388695128591E-04   -7.1382764687565726E-05
          -4.5134200613911556E-04   -3.6461998036502497E-05   -6.2014780459217222E-04
           9.6717121607256648E-04   -4.1496771604872989E-04   -1.4275705698039776E-03
           7.4612048410700813E-04    7.4926340799306415E-04   -2.8983563267203049E-05
           1.1950822730812578E-03   -2.4938163772602478E-04   -4.6955699927089069E-04
           3.3437263773363282E-04   -4.4066319731039414E-04   -4.5337897815366033E-04
           1.1011431662382803E-03    2.9139917327017600E-04   -1.2198962736652136E-03
           2.2385249970905237E-04    1.5948609342855255E-03   -3.7881054219763769E-04
           1.0079326383146063E-03   -6.8228660473671138E-04    2.6177285017205663E-04
          -7.1676772166734656E-05    2.5746464896773588E-05   -1.3520750351265823E-04
          -6.5359743159644924E-04   -1.1729133117502908E-04    1.7260386305513573E-04
          -6.3946645532177420E-04   -9.4886603545156793E-04   -2.5714998908812030E-04
          -3.9131100883006351E-04   -2.4416892645116086E-04   -5.0810873229293447E-04
           2.8831271512097035E-04   -2.0448067102051856E-03   -7.4372526402207882E-04
           3.8720872053319111E-04   -1.5659038684743901E-03   -8.1922109567108149E-04
           6.6131192185003536E-04   -2.0572267226713593E-04   -4.7008211594607222E-04
          -4.8840437584570792E-05   -1.4279618006686199E-03    8.4954144524102253E-04
          -5.1075273925398914E-04    9.0001937672893381E-04   -4.3720385364949158E-04
           2.7825781517077112E-04    1.1169167719235440E-04   -5.6938528401966732E-04
          -1.5084824930703801E-03    7.3769946901974326E-04   -6.1844046634874447E-06
           2.4538874923091286E-04    9.7494646952540215E-04   -4.8314180616003611E-04
          -8.5480359469175023E-05    5.9478416171877444E-04   -4.9304901635565953E-05
          -6.8266994505226377E-04   -5.5575566575113359E-04    7.1333097089252987E-04
           4.9456847773873437E-05    6.5025459335011965E-04   -7.7972174813227156E-04
           7.9382955318476744E-05   -7.8198264146357211E-04    7.2595378947961568E-04
           2.5852131569561836E-04    7.5469391167383117E-05   -5.8533339039108811E-04
           3.2409077359153401E-04   -2.7317136237518813E-04    2.5330976797344320E-04
          -1.0540506164909964E-03    5.0562455740597086E-04    7.1097587663658697E-04
           8.0546734662510940E-04   -1.4475933299100979E-04   -9.1148946840461439E-04
          -9.4447429195581445E-05   -1.7442565229167458E-04   -6.6682127829235699E-04
          -5.9604062243365924E-04    2.1026825326346996E-03   -1.6362959701713876E-04
          -5.9396099202948399E-04   -1.8326838202962836E-04   -3.0896384759681586E-04
          -1.1277145425874270E-04   -1.9670835968991040E-04    5.4210691563416548E-04
           3.7332633879049289E-04   -2.2247370329763651E-04   -3.6283756805564757E-04
          -5.2077706489333869E-04    8.9077612568354552E-04   -5.6184164068693459E-04
           6.7815751255942457E-04    1.3444514439775544E-04   -5.4935154403425830E-04
          -5.1310271399653614E-05   -7.8829554703843663E-04    5.3276039724001894E-04
          -8.5130409005696952E-05   -4.3984632745272100E-04   -1.5059866460121914E-03
           1.9680255627580582E-04    7.0602917217807339E-04    7.9813152563794549E-04
          -3.1120886791608123E-04    7.4703220924857085E-04    4.9930464952450081E-04
          -7.7046114692478772E-04    8.8060124138785801E-04    4.4946245364873926E-04
           4.7827412322409612E-04    2.0967831427721645E-04    9.9045583191317648E-04
           2.7338768314555487E-04   -1.2911505094692360E-05    2.0308294566661802E-03
           2.2268144216395255E-04    4.5671096290337963E-04    2.0294438627008354E-03
          -1.3963762681090382E-04    6.4107067981863453E-04    2.3590679284556763E-04
           1.0627265607024605E-03   -8.1441755638463162E-04    2.5570925291607812E-04
           5.5752905184224433E-04   -2.4904265434385269E-04    1.0092943120078792E-03
           8.2308722580189358E-04    4.6317561234395860E-04    1.0881531478764072E-03
           1.0550329244356134E-03    1.4718671462259807E-03   -1.9479088051766380E-04
          -5.9234975152822977E-04    1.4349114685459424E-03   -1.0527038082652361E-03
           1.6932613075278094E-04   -2.7170861877273770E-04   -1.8216829138137548E-04
          -3.9770868216027860E-04    1.1372230153303613E-03    1.5121550510643295E-04
          -2.1017769408845336E-04    2.5917097130832140E-04    1.2964206860141606E-03
           5.7060427920369364E-04    4.3671541265027453E-04   -1.4660693893359521E-04
           2.7365554736001363E-04   -1.1051173481923104E-04   -2.7041350586768888E-04
          -1.5490310923885909E-03   -4.8289839359854671E-04    1.0665735172158751E-03
           1.1224150504437005E-04    6.1359106771916158E-04   -2.4338314528421498E-04
          -8.4574512528005257E-04    2.7257287515217523E-04    4.4909119714642938E-04
          -9.0308194375671798E-04    4.6440059128039819E-04   -2.6541928312020358E-04
          -1.1903653561444883E-03    3.2337940588099499E-05   -5.5038916002579442E-05
           2.6854808173484298E-04   -1.1020380157770245E-03    6.7777744830862846E-04
           3.1913849413211300E-04    1.0174460215350439E-03   -3.0838829165928628E-04
          -4.2287091606213305E-04    4.3945863776483009E-04   -8.2903290422506228E-04
           4.5796851366945138E-04   -7.2851844241852536E-04   -1.9906514358186537E-04
          -2.5421516948942078E-04   -2.9861670766514483E-04    4.0880986580953815E-04
          -1.7312719899405612E-04    6.5870510361214099E-04    1.2668576802619153E-03
           2.5583564444127231E-04   -7.9678978614190570E-07    1.1677936184248771E-03
          -1.5491526832800615E-05    1.3159291771849431E-03    1.0400222974346349E-03
           8.9575808404956383E-04   -3.3563207832009058E-04    5.8434047540903465E-04
           1.0485189083675470E-03    1.4354236887715343E-04   -1.3233266899020171E-03
          -7.1283458300014173E-04    3.7647186490181523E-04   -7.8163815423045488E-04
          -5.0191624993554883E-05    2.0915573574960645E-05   -3.3662881984282037E-04