 # Version information for this restart file 
 # current date 2023-07-28 11:01:27.286
 # current working dir /mnt/lustre/indy2lfs/work/tc047/tc047/mrnuff-cirrus/cp2k/nuff-benchmarks/H2O-64-8node
 # Program compiled at                              Thu Jun 30 12:29:55 BST 2022
 # Program compiled on                                             cirrus-login3
 # Program compiled for                                             Cirrus-intel
 # Source code revision number                                       git:e635599
 &GLOBAL
   PRINT_LEVEL  LOW
   PROJECT_NAME H2O-64
   RUN_TYPE  MD
 &END GLOBAL
 &MOTION
   &MD
     ENSEMBLE  NVE
     STEPS  10
     TIMESTEP     4.9999999999999994E-01
     STEP_START_VAL  10
     TIME_START_VAL     4.9999999999999982E+00
     ECONS_START_VAL    -1.1007588181099864E+03
     TEMPERATURE     3.0000000000000000E+02
     &AVERAGES  T
       &RESTART_AVERAGES
         ITIMES_START  1
         AVECPU     2.4054856006288903E+00
         AVEHUGONIOT     0.0000000000000000E+00
         AVETEMP_BARO     0.0000000000000000E+00
         AVEPOT    -1.1010668160173032E+03
         AVEKIN     3.0070034549320157E-01
         AVETEMP     3.3142598855989297E+02
         AVEKIN_QM     0.0000000000000000E+00
         AVETEMP_QM     0.0000000000000000E+00
         AVEVOL     1.2909542132085598E+04
         AVECELL_A     2.3458682268415796E+01
         AVECELL_B     2.3458682268415796E+01
         AVECELL_C     2.3458682268415796E+01
         AVEALPHA     9.0000000000000000E+01
         AVEBETA     9.0000000000000000E+01
         AVEGAMMA     9.0000000000000000E+01
         AVE_ECONS    -1.0896372883041895E+01
         AVE_PRESS     0.0000000000000000E+00
         AVE_PXX     0.0000000000000000E+00
       &END RESTART_AVERAGES
     &END AVERAGES
   &END MD
 &END MOTION
 &FORCE_EVAL
   METHOD  QS
   &DFT
     BASIS_SET_FILE_NAME GTH_BASIS_SETS
     POTENTIAL_FILE_NAME POTENTIAL
     &SCF
       SCF_GUESS  ATOMIC
       &OT  T
         MINIMIZER  DIIS
       &END OT
       &PRINT
         &RESTART  OFF
         &END RESTART
       &END PRINT
     &END SCF
     &QS
       EPS_DEFAULT     9.9999999999999998E-13
       EXTRAPOLATION  PS
       EXTRAPOLATION_ORDER  3
     &END QS
     &MGRID
       CUTOFF     2.8000000000000000E+02
       REL_CUTOFF     3.0000000000000000E+01
     &END MGRID
     &XC
       DENSITY_CUTOFF     1.0000000000000000E-10
       GRADIENT_CUTOFF     1.0000000000000000E-10
       TAU_CUTOFF     1.0000000000000000E-10
       &XC_FUNCTIONAL  NO_SHORTCUT
         &PADE  T
         &END PADE
       &END XC_FUNCTIONAL
     &END XC
   &END DFT
   &SUBSYS
     &CELL
       A     1.2413800000000002E+01    0.0000000000000000E+00    0.0000000000000000E+00
       B     0.0000000000000000E+00    1.2413800000000002E+01    0.0000000000000000E+00
       C     0.0000000000000000E+00    0.0000000000000000E+00    1.2413800000000002E+01
       MULTIPLE_UNIT_CELL  1 1 1
     &END CELL
     &COORD
O    1.2265692089483856E+01    1.3554390129941438E+00    1.0875425741210439E+01
O    6.4523125712781919E+00    3.7059030017228283E+00    8.6472703373292994E+00
O    7.7679434805462022E-02    2.1684363409615863E+00    8.2608499727948566E+00
O    1.2086328917682367E+01    2.6383236471456049E+00    2.1708319631148263E+00
O    1.2290563434792569E+01    4.1705987030843987E+00    1.2102197401500556E+01
O    7.2035546534508077E+00    9.4146440982938884E-01    4.7596753308530477E+00
O    8.3332259924710872E+00    7.2077559238208693E+00    4.6827252174467286E+00
O    1.2331820354972860E+01    1.1521085584601238E+01    8.0815267568454754E+00
O    3.2742305248729551E+00    4.4591006237004196E+00    9.1745323461747290E+00
O    2.8601657947010626E+00    3.7871321994318401E+00    6.5410904120532818E+00
O    1.3797135980521995E+00    6.3917883108527933E+00    5.6509499049341116E-01
O    1.8717778176469071E+00    8.6859327223318452E+00    2.0908475002935911E+00
O    3.7724126920716192E+00    1.2107291686118634E+01    8.6205990989002199E+00
O    6.4253612010427501E+00    3.6667844669335508E+00    2.7875787966086056E+00
O    1.9996801569167424E+00    1.8525818618605607E+00    4.8671305057776006E+00
O    8.2870264289442659E+00    2.4221945186202261E+00    6.9417301194040899E+00
O    5.7524965525743728E+00    3.3354063225407242E+00    1.2486444073906771E+01
O    1.1313041873263989E+01    5.6568394091370733E+00    2.2481538681310198E+00
O    4.2889086332743886E+00    2.1146774663677266E+00    1.0586400462686644E+01
O    5.3988008779579229E+00    3.3584215761665739E+00    5.4859980676066531E+00
O    6.5093803283316856E+00    1.1870555907452934E+01    7.1448610258286827E-01
O    3.2525927590516157E+00    2.3434818290721071E+00    2.4132514479858447E+00
O    8.0086796499284070E+00    6.3565335203085667E+00    7.4977752039614201E+00
O    5.9288585788258059E+00    6.5082801666043606E+00    1.2195796701642379E+01
O    1.0610385294795597E+01    1.1861264429738622E+01    1.2200574174939971E+01
O    9.3403690756567990E+00    3.6890996107164074E+00    3.5273423653475451E+00
O    1.1111278086577721E+00    5.7890355206451689E+00    6.6473009501981410E+00
O    8.0194995343336135E+00    3.3269739508473855E+00    1.0869758841489798E+01
O    1.2376084676796200E+01    9.6748049821029092E+00    1.1772442429127411E+01
O    4.2098962719504200E+00    7.0914037241392185E+00    8.1403049780540755E+00
O    3.7839656891276290E+00    8.2290488153629866E+00    1.1585038748792392E+01
O    1.1076296436002542E+01    4.5429033328726973E+00    7.8327522122957216E+00
O    1.0435269965490702E+01    8.4217711221836566E+00    1.0328413587523511E+00
O    1.9828015281271236E+00    6.4005825276162582E+00    1.0353823655978506E+01
O    4.7041682767468833E+00    5.6227133611201374E-01    5.6097237226911938E+00
O    8.7178718108893367E+00    1.2242115811187370E+01    8.0976567639231671E+00
O    2.6327341025095348E+00    1.0520521873272861E+01    8.2905623926724903E-02
O    7.2399931187465301E+00    1.0511642196931726E+01    4.2432664330031820E+00
O    2.2807064781620281E+00    2.7612056427345860E-01    1.0807250569989337E+01
O    8.8632061138828995E+00    9.4642072500209617E-01    1.3400856795969533E+00
O    1.9443088048744035E+00    8.0893935868695337E+00    7.5355059867712280E+00
O    9.6598248299588985E+00    8.0355046451626340E+00    9.8565400345209220E+00
O    1.0903669851584301E+01    8.3307153998975938E+00    6.4773146916028344E+00
O    3.5124567442237584E+00    4.8693650210823041E+00    1.5451764009707925E+00
O    7.9775830453592063E+00    8.6026723333305082E+00    1.2050849513770215E+01
O    8.3694035479504585E+00    1.0019371052443068E+01    6.6836141760228793E+00
O    5.6546743218576534E+00    6.0810664230944296E+00    5.5283846573827820E+00
O    1.1742547847645389E+01    1.6241840639034066E+00    5.0859575162073050E+00
O    9.7585719615142406E+00    9.8110347715519026E+00    3.5364867774941775E+00
O    3.9627876574400109E+00    1.0548914651573821E+01    4.6848634346389728E+00
O    9.0110847254964910E-01    6.3699180308686465E+00    4.0614677068442608E+00
O    6.8825857356122295E+00    6.4084220847945081E+00    2.5046902581440511E+00
O    3.8180799995398473E+00    6.6391276583280829E+00    3.7786506828598161E+00
O    6.5639457974899544E+00    8.3081696931559499E+00    8.8142644496195572E+00
O    9.7792965800925966E+00    1.3440562766333544E-01    3.8518038249084730E+00
O    4.1040770115658338E+00    1.1645978558721346E+01    2.2167390496173121E+00
O    5.3225394392112060E+00    8.7370879819812721E+00    2.7520568939068948E+00
O    1.0008064086737122E+01    5.3735087324373412E+00    5.3757728940149292E+00
O    1.2260297782908712E+01    8.6464340629359100E+00    3.9709777917871736E+00
O    2.3431345497117193E+00    1.0747243885368775E+01    6.8128217267251676E+00
O    7.0016612916654024E+00    6.6240597665989609E-01    1.0534341561687874E+01
O    5.1725047982213335E+00    1.0218495319125163E+01    1.0357205957141447E+01
O    1.1186316801594465E+01    5.8851524495734795E+00    1.0299193203865935E+01
O    1.2277001782589769E+01    8.9569716794260206E+00    9.0707884188586014E+00
H    1.2357840653884589E+01    2.3335995753223542E+00    1.1187202568866974E+01
H    1.1946181003856040E+01    1.5338243304144001E+00    9.8820686313880941E+00
H    5.5871540556996591E+00    3.4492983737426894E+00    9.0442905792539321E+00
H    6.8930493554900627E+00    3.0239782285797130E+00    7.9852283560216204E+00
H   -1.4374297116875723E-01    1.5098214846070399E+00    7.5263531243312602E+00
H   -3.8865416711487638E-01    3.0530974755007581E+00    7.9298823362641997E+00
H    1.2176354233152390E+01    2.9746344065106056E+00    1.1924463434421666E+00
H    1.2991627169715454E+01    2.9143170210546376E+00    2.5155346727349519E+00
H    1.1517585159651761E+01    4.3255122446514971E+00    1.1434691026735690E+01
H    1.2784953658522355E+01    5.0635466714148167E+00    1.2040055000821253E+01
H    6.9671401310518242E+00    1.7387343976971543E+00    4.1849967664899790E+00
H    6.2296009063341522E+00    6.8946782722659472E-01    5.1579113656952362E+00
H    7.7273594948731565E+00    7.2216808380997346E+00    5.4888761780279394E+00
H    9.1691701765472047E+00    6.6296086344990286E+00    4.9460727574882224E+00
H    1.2846883768257145E+01    1.1781070688348869E+01    8.9005192602394310E+00
H    1.1983330930254024E+01    1.0563456761596422E+01    8.3168613221527767E+00
H    3.5249173108183109E+00    3.8402074967244366E+00    9.9510006399904150E+00
H    2.4297337650179740E+00    4.9330989925195974E+00    9.5245628999133061E+00
H    2.1731627523311583E+00    4.5583640086454658E+00    6.3013579985285926E+00
H    2.8563500932208563E+00    3.8576048156108458E+00    7.5841394106043563E+00
H    1.1402120515022358E+00    7.1967347480528279E+00    1.1594244541637280E+00
H    2.2451038169255146E+00    6.0044688738683734E+00    1.0028737587400363E+00
H    2.8159635337991435E+00    8.9701748198810805E+00    2.2995199891601925E+00
H    1.3289544665060060E+00    8.9939926467787163E+00    2.8983257079432168E+00
H    4.4550218369064014E+00    1.1540339425003665E+01    9.1644203320314546E+00
H    3.0505860859904823E+00    1.2474023132571242E+01    9.2862357274699843E+00
H    5.8591510063954688E+00    3.4580809397754511E+00    3.6616773633306581E+00
H    5.8328342793244312E+00    3.4003555439705977E+00    1.9823495664217416E+00
H    9.5573469725944282E-01    1.6451477306432636E+00    4.8407733836344891E+00
H    2.2282991647305703E+00    2.4813299829893105E+00    5.6872650230015998E+00
H    8.4431290012363291E+00    1.6050270153562092E+00    7.5442513472487347E+00
H    8.0660702671729858E+00    2.0137128293827278E+00    6.0338191030233226E+00
H    5.2179579256212998E+00    2.8944435585795705E+00    1.1676379626020985E+01
H    6.6808372388708124E+00    3.4137338960721930E+00    1.1974227321955100E+01
H    1.0787628803146424E+01    6.5181395670633924E+00    2.0987991922631606E+00
H    1.1679773573101350E+01    5.3602522151474270E+00    1.3423877172513410E+00
H    3.4353203684197342E+00    1.5422281194350551E+00    1.0899348788957488E+01
H    4.8360131199369967E+00    1.4266306188285296E+00    1.0089887937303692E+01
H    4.3860802582003080E+00    3.3639520802571963E+00    5.6883523933769364E+00
H    5.6851424648156472E+00    4.3694414775812138E+00    5.5473743673655429E+00
H    6.2905172776228708E+00    1.1824099733746493E+01    1.7188529435633948E+00
H    5.6254822935021354E+00    1.2118652077614263E+01    3.2827489265255616E-01
H    3.5448338646084419E+00    1.3905272139791807E+00    2.1815170599107185E+00
H    2.6082617908452730E+00    2.2011793681999290E+00    3.2448585926835150E+00
H    7.1214310944126131E+00    5.8746986475794394E+00    7.5240902705241073E+00
H    8.6555160452212210E+00    5.7349833608759040E+00    7.0296645633626156E+00
H    6.0004465275644687E+00    5.6511979030140500E+00    1.1673025686980351E+01
H    6.2576534574141283E+00    6.3249880564333445E+00    1.3168261180251836E+01
H    1.1110393485509380E+01    1.2636559250997601E+01    1.1695509562619870E+01
H    1.0264574453193150E+01    1.2297166054267020E+01    1.3044673119309840E+01
H    9.9063257583772213E+00    4.0523254539287468E+00    2.7328096710822867E+00
H    8.5320976562309951E+00    3.4662435851515294E+00    2.9418258347988795E+00
H    1.4549325922379281E+00    6.6684406032650392E+00    7.1063381287424985E+00
H    1.0013233336715022E+00    6.1758231958589827E+00    5.6553319488923020E+00
H    7.9834584102603152E+00    3.6965662970357962E+00    9.9295362401112328E+00
H    8.0702893407902483E+00    2.3148727995365364E+00    1.0750118168090850E+01
H    1.1741851247338158E+01    1.0457041172522485E+01    1.2099135806994601E+01
H    1.2145140467200020E+01    8.9346530857759561E+00    1.2412210742862982E+01
H    3.3373535314762464E+00    7.6121200308665218E+00    7.8531045761947054E+00
H    3.8438071109320791E+00    6.2417161568827524E+00    8.6114175129813511E+00
H    3.1132077807628065E+00    7.6196920981180325E+00    1.1070308623802319E+01
H    4.4752997918974149E+00    7.6309327249732695E+00    1.2076616644959723E+01
H    1.1595109347938857E+01    4.9846383472199109E+00    7.0588447442735358E+00
H    1.0300198428129795E+01    4.1359917521732346E+00    7.3179795841150064E+00
H    1.0066803629045040E+01    8.9449101926877859E+00    1.8648409458417918E+00
H    9.5721275817983411E+00    8.2654871620115529E+00    4.9820470823339857E-01
H    1.3188214514396215E+00    6.6901027276302978E+00    9.6503048603159964E+00
H    1.4021624816980249E+00    6.4512365186890266E+00    1.1227722789148149E+01
H    4.1225373888741572E+00    1.3301382656581604E+00    5.2661059713499903E+00
H    4.6863100279913814E+00    6.4323888154046249E-01    6.6181558656211523E+00
H    9.4703533710557242E+00    1.2334177792058732E+01    8.7409520154269984E+00
H    8.8486737260982764E+00    1.1353175343935686E+01    7.5414016813722347E+00
H    1.7346635260617507E+00    1.0023247752455870E+01    1.4531246290856190E-01
H    3.3374323737184786E+00    9.8445600332825283E+00   -2.3573946363585582E-01
H    7.0505799823412048E+00    1.1506005604268189E+01    4.1255571139598981E+00
H    6.4716019298306362E+00    9.9354966266936522E+00    3.7910911532772054E+00
H    1.3268589592358828E+00    5.8377393429890867E-01    1.1128929736799554E+01
H    2.5223619020798469E+00   -5.4513600115543570E-01    1.1460522258349521E+01
H    8.7695024945575319E+00    1.8730405160141019E+00    9.9029984538937366E-01
H    8.0908940305256234E+00    3.3984351975125959E-01    9.9164118000383672E-01
H    1.1203607709246635E+00    8.3716512006963164E+00    8.1792323344823963E+00
H    2.0883187077764096E+00    8.9941496096235536E+00    7.0138877035394751E+00
H    8.9092455661168728E+00    7.7938840102083624E+00    9.2222118549485330E+00
H    9.0650442925885137E+00    8.4492400512121382E+00    1.0614283870982277E+01
H    1.0125293357175011E+01    7.6972294325268011E+00    6.4507709233859920E+00
H    1.0499855152539327E+01    9.1992705817147264E+00    6.1555311709810763E+00
H    3.4971231604228823E+00    3.9586904012080235E+00    2.1122844778207370E+00
H    4.0584146620663875E+00    4.5845739999387103E+00    7.4299547661143750E-01
H    7.3547300979709078E+00    9.3907717765816141E+00    1.2034662471096654E+01
H    7.3341917810681352E+00    7.7711469163740112E+00    1.2054219542752236E+01
H    7.8271815569077896E+00    1.0161811172290108E+01    5.7814619639485514E+00
H    7.7120113817889715E+00    9.5092512996363023E+00    7.2843726304683232E+00
H    5.2899463871889569E+00    6.4889429596080292E+00    6.3929757321027738E+00
H    4.8678252868839023E+00    6.3175211180863009E+00    4.8313586361436061E+00
H    1.1521862541305604E+01    2.1923283626799384E+00    4.2496614328179083E+00
H    1.1222791846958211E+01    7.8414795598368603E-01    4.7829538343865314E+00
H    8.8119942350220359E+00    9.6778779613701413E+00    3.9666686831542850E+00
H    9.9342844970872441E+00    1.0814156988791140E+01    3.7816372858598473E+00
H    3.1082289528956482E+00    1.0546326407174599E+01    5.2868803913858304E+00
H    4.3132584907103366E+00    1.1455620653057887E+01    5.0610780320731301E+00
H    4.2220406784282510E-01    7.3045102192446789E+00    3.8013135649941519E+00
H    2.9772343931240564E-01    5.7724401932040550E+00    3.4526995513594527E+00
H    7.5860591209725152E+00    6.5678847601548878E+00    3.2915836809346359E+00
H    6.6758385347283635E+00    5.3831754309177464E+00    2.5200133494028352E+00
H    3.8532534172200950E+00    6.3060046348703311E+00    2.8123783749706650E+00
H    2.7953246440734389E+00    6.5485847389780147E+00    3.9537741358608902E+00
H    5.5553176437611871E+00    8.0120599991626555E+00    8.6583941104725639E+00
H    6.9993930795499537E+00    7.4780238970676605E+00    8.4104344163925830E+00
H    9.5571588990613474E+00    7.3280446145764810E-01    3.0174818797266547E+00
H    8.9237164310791215E+00    1.3437510586139781E-01    4.4076447871975990E+00
H    3.8482457315668439E+00    1.1174438455171209E+01    1.3441470566656624E+00
H    3.9626056228575006E+00    1.0964278466897795E+01    3.0102551897948526E+00
H    5.9449661422373650E+00    7.8891857853092633E+00    2.7995741535958785E+00
H    4.7652120121302755E+00    8.7229381074890249E+00    3.5906717261658834E+00
H    1.0905815782848149E+01    5.5302201800698052E+00    4.9342869455821941E+00
H    9.5033245323310425E+00    4.6732708376730834E+00    4.7171193166484144E+00
H    1.1491942104116859E+01    9.0018887406782220E+00    3.3983649908363143E+00
H    1.1959903629039028E+01    8.7851547644297696E+00    4.9401026898657090E+00
H    2.9404439844277421E+00    1.1333326721638180E+01    7.4881123877731453E+00
H    1.3993518978817823E+00    1.1120275827042654E+01    6.8063456551228452E+00
H    7.2181951384382534E+00    1.2809608485329879E-01    9.7032371258681902E+00
H    7.1648660378593769E+00    1.0772078745144245E-01    1.1367500988399758E+01
H    4.8113412051052977E+00    9.3237474535607756E+00    1.0837702423611688E+01
H    6.0816481698035005E+00    9.8060697913094188E+00    1.0186927365163093E+01
H    1.0565212262638651E+01    6.7306908548558599E+00    1.0314443980528056E+01
H    1.1239043366237617E+01    5.5938377372084647E+00    9.3143651163973278E+00
H    1.2188456954752102E+01    8.9927460848978296E+00    1.0127821223536927E+01
H    1.1415764242457508E+01    8.6329965781030573E+00    8.6365688433578462E+00
     &END COORD
     &VELOCITY
           2.4353373553015484E-04   -1.2006097602743239E-04    8.6380096428760440E-05
           5.1311970177945533E-05   -1.2708266212432205E-06   -1.4048482607229392E-05
          -1.3298767757244275E-04   -8.3910828186688582E-05   -1.7227772179724760E-04
           3.2311111387330960E-04   -2.8974228281290569E-04    2.2815855771200018E-04
           3.6807112800075640E-04   -1.6540691872329343E-04    8.2168021722100250E-05
           8.6843810076256558E-05   -1.6733145784975702E-04    2.3233906169815296E-04
          -1.9144732815531520E-04    3.6490306373169454E-05    1.7692428816224178E-04
          -2.7339212137228648E-04   -2.0181330327655778E-06   -2.5185283188817304E-04
          -2.9114797156459165E-04    1.4202524657038525E-04   -9.4207613534424885E-05
           4.9604684381811118E-05    1.9764986075527984E-04   -3.9675655902479609E-05
          -1.0338266296007636E-04    2.5533554886720579E-04   -1.7753567723107278E-04
           1.2393271803251365E-04   -5.1522817964409434E-05    2.4869105054795498E-04
           3.7171385612102071E-05    1.3912087635355991E-04   -2.6001104941592224E-04
          -9.0584380439799345E-05   -5.4256969623597820E-05    1.3571849163680462E-04
          -1.3532069034508126E-05    2.9312535024578695E-04   -1.1035216194484895E-04
           3.4365663856438292E-04    1.2592891247606734E-04    1.2984947778464721E-04
           3.1061310688168782E-05   -2.1491061234667612E-04    1.3642911352206125E-04
          -1.1197980598846635E-04    8.8708519145448911E-05    8.1551359030142766E-05
           7.2553977150342542E-05   -7.4882564048502640E-05   -3.7593240429273601E-05
          -3.9311008769466914E-05    7.7794970772717686E-05   -4.9503853883974836E-05
           1.3050850736361452E-04    3.2997372843558107E-05    2.3384938882057337E-04
          -2.3506710107565015E-04   -1.3038351983432356E-04   -7.8872779761955187E-05
           2.2656471395966616E-04    3.8984618353004584E-06   -1.0674489559478902E-04
          -4.8910812396592447E-04   -8.8250996371240116E-05    4.1168871693972561E-05
          -2.3516505104533892E-04    3.0141522875689823E-05   -4.3307021528135974E-05
           2.3874077440308545E-04    1.6479626533072965E-04   -6.5961174411985940E-06
           2.1570400439098319E-06   -3.6687604474189061E-04    1.9056449025043298E-05
           1.5263290745975454E-04   -4.5423683353126691E-05   -4.7828240980724237E-05
          -2.4361660474222810E-04   -1.5799538490145817E-04    1.4701044899522193E-04
          -4.6332302277722671E-05    6.6958418740660275E-05   -1.4093723621104131E-04
           7.0402526348715719E-05    1.4787938508902191E-04    2.3294646136464567E-04
          -1.0541845847348984E-04    9.0959878374959025E-05    1.4239486316503818E-04
           3.9447066267670334E-04    6.7697585287176850E-05    1.1078543440103206E-04
          -7.7642050395899652E-05   -1.2536442818497734E-04   -1.9896428319713828E-04
           4.0834731830727424E-04    1.4767279244947529E-04    2.0697580191126715E-05
          -2.3059415804946298E-04   -1.2069261926455306E-04    1.1528847271892632E-04
          -2.2453224222832922E-04    3.2508315209848663E-04   -1.1011175869297406E-04
          -2.5223464559789023E-05    3.9102949516975469E-04    1.6353834116376447E-04
           2.2717843315361085E-05   -6.2765751654835929E-06    4.4671040029216195E-05
          -2.2749659830632868E-04   -6.9576305508548326E-06    6.3788388337146748E-05
          -7.5841302718428674E-05    8.7087799012193514E-05   -2.6939094015330476E-04
          -1.5166914072061599E-04   -1.6482446184508032E-04   -8.8619423403785868E-05
           8.3255811685864685E-06   -5.3065384631650248E-05   -7.5044278376187101E-05
           6.6403553282760679E-05    1.1865592146717839E-04   -1.6876922794211753E-04
          -3.6854176965739495E-04   -4.4916679521389709E-04   -7.2212204725094711E-05
          -1.2514834926118652E-04   -2.1658705550508110E-04    1.4279407557704631E-05
           1.5301292386558799E-04    7.8212466736006346E-05   -2.6042789655634845E-04
           1.1597437780961287E-04    1.3153166326603782E-04    1.9714489345846726E-05
          -2.7586288468252591E-05    4.9135802992719074E-05   -8.2847135184264622E-05
           1.7533037836968792E-04   -1.0200057778762425E-04   -1.5955910870934375E-05
           9.1305293479754134E-06   -1.7063363096489094E-04   -1.2704533408529708E-04
           2.0532414020145209E-04   -1.8523108330930970E-04    1.5576953260054423E-04
          -9.5082342049026820E-05    3.8898283928825197E-04    6.8143354604176061E-05
          -3.3468517684342177E-05    1.1413973594357407E-04    4.8372670605628310E-05
          -3.2167308794213379E-04   -6.7373694363149451E-05   -3.3440505798356930E-04
          -1.0565699375447025E-04   -1.8612919959465370E-04   -4.1185047197008799E-05
           3.0227443463925774E-04   -1.9476821693501524E-08   -4.0898192670300423E-05
           3.4132859751140153E-04   -7.5666618758224403E-05    3.1369871723564095E-04
           4.8774504464607846E-06    9.5432986767708631E-05    4.0463993790663675E-05
          -7.3525642130776311E-05   -1.1023344657282776E-04   -1.6990266178551394E-04
          -9.5305467321069818E-05    1.5924492797685991E-04    1.0050784054863339E-04
           2.9577992716654127E-04   -2.0302338272461647E-04   -3.8000268551124849E-06
           3.3426751499645114E-05    2.9960856876627068E-05    2.2957098675659885E-05
           2.1247046209992099E-04   -1.8773508816416731E-04   -7.1323934923733369E-05
          -4.5158839413228009E-04   -3.6143060075812498E-05   -6.1976176340897962E-04
           9.6706711087697866E-04   -4.1494673937878424E-04   -1.4270244722055108E-03
           7.4657709739370443E-04    7.4979183341779352E-04   -2.9716006651663132E-05
           1.1944835029924820E-03   -2.4887952169351480E-04   -4.6965328168307389E-04
           3.3415678178048367E-04   -4.4057529885618233E-04   -4.5347033645323884E-04
           1.1012796129992899E-03    2.9083917956653621E-04   -1.2194190254998635E-03
           2.2415342341385112E-04    1.5937251548530477E-03   -3.7781211910994044E-04
           1.0073465758486115E-03   -6.8157982680851052E-04    2.6183752026084304E-04
          -6.9769183644705524E-05    2.4841597120445478E-05   -1.3349984299960635E-04
          -6.5395783735259496E-04   -1.1729839030552567E-04    1.7209949838902511E-04
          -6.3912725034549018E-04   -9.4833908164607876E-04   -2.5753189732470946E-04
          -3.9187509729176554E-04   -2.4417797176649387E-04   -5.0822500047616507E-04
           2.8904185306936984E-04   -2.0455475311377735E-03   -7.4488003303471652E-04
           3.8533435941902794E-04   -1.5649598638873452E-03   -8.1999331589295891E-04
           6.6163782210780140E-04   -2.0530137992879008E-04   -4.7022778535305265E-04
          -4.8571775218220610E-05   -1.4283455067310954E-03    8.4970777264081190E-04
          -5.1040502072058520E-04    9.0124041076802244E-04   -4.3717828656938908E-04
           2.7962496773810110E-04    1.1112791910186952E-04   -5.6980553869944882E-04
          -1.5080494509649967E-03    7.3672779724327710E-04   -5.7541529152748972E-06
           2.4475429620376743E-04    9.7437756642333164E-04   -4.8339679942387115E-04
          -8.5981680084337047E-05    5.9512037267013486E-04   -4.8949501758595225E-05
          -6.8266467564498596E-04   -5.5567223333590973E-04    7.1350489601829147E-04
           4.8033714497251748E-05    6.5011279414253244E-04   -7.7943973949955018E-04
           8.0491911097020134E-05   -7.8343749752428392E-04    7.2435736497855000E-04
           2.5839724571571909E-04    7.5578985186105303E-05   -5.8507007757535199E-04
           3.2468632064963881E-04   -2.7324024724238575E-04    2.5249479695018642E-04
          -1.0539062839264946E-03    5.0616494373646476E-04    7.1049452486345597E-04
           8.0541579377241095E-04   -1.4428395473410096E-04   -9.1111624630144062E-04
          -9.3901405509909202E-05   -1.7440336409875815E-04   -6.6695306718242832E-04
          -5.9667439631930967E-04    2.1020879938548139E-03   -1.6524975844521661E-04
          -5.9413689338500681E-04   -1.8314218673336761E-04   -3.0878549940388826E-04
          -1.1299139623083100E-04   -1.9706794256196477E-04    5.4164798334317731E-04
           3.7379192866255175E-04   -2.2187500989160759E-04   -3.6215118741651277E-04
          -5.2111287106781999E-04    8.9091209793557360E-04   -5.6207250900662574E-04
           6.7919292605886047E-04    1.3343181454279529E-04   -5.4958333089206654E-04
          -5.0955912352581737E-05   -7.8811310899946745E-04    5.3306738438736766E-04
          -8.4615276347852684E-05   -4.3969810880049946E-04   -1.5061331385044015E-03
           1.9621493943722330E-04    7.0658921104547285E-04    7.9834173948862728E-04
          -3.1086266729263691E-04    7.4710976671123165E-04    4.9983161016066402E-04
          -7.7088036734358550E-04    8.7923123999650472E-04    4.4906439902548566E-04
           4.7843808737635358E-04    2.0885304144578913E-04    9.9081078441714621E-04
           2.7383478090742632E-04   -1.2076470168905231E-05    2.0312636572823550E-03
           2.2238602224823232E-04    4.5732113706448629E-04    2.0297495633928579E-03
          -1.3983314820099666E-04    6.4110517558855769E-04    2.3541721875189190E-04
           1.0634351964051434E-03   -8.1406755449423419E-04    2.5592615928206070E-04
           5.5764666824792842E-04   -2.4944020395792810E-04    1.0095491375662696E-03
           8.2355304834672168E-04    4.6265598281714692E-04    1.0873683440586778E-03
           1.0554542732425852E-03    1.4711843503886423E-03   -1.9257994645191661E-04
          -5.9301436634951084E-04    1.4338243179617843E-03   -1.0518598720355833E-03
           1.7009542630587801E-04   -2.7229621441618261E-04   -1.8275874434178042E-04
          -3.9794180044781276E-04    1.1377334676034713E-03    1.5111872075120470E-04
          -2.1010779020896528E-04    2.5908254733910004E-04    1.2965840740998143E-03
           5.7014687399958657E-04    4.3663748724513316E-04   -1.4622705924019919E-04
           2.7451658006183639E-04   -1.1055104188468567E-04   -2.7011911347608983E-04
          -1.5488517944000067E-03   -4.8268639177343576E-04    1.0661735520020839E-03
           1.1223093817360104E-04    6.1336181167670055E-04   -2.4337739021701240E-04
          -8.4642821008581472E-04    2.7314900747025064E-04    4.4966165017808630E-04
          -9.0281864257559874E-04    4.6471968390435995E-04   -2.6632644266114667E-04
          -1.1909602595333176E-03    3.2546725745329091E-05   -5.5177771593926980E-05
           2.6878284876700196E-04   -1.1019214431333892E-03    6.7804196598006644E-04
           3.1926309387702315E-04    1.0177813137571003E-03   -3.0847823992876495E-04
          -4.2284471691390852E-04    4.3959034011686909E-04   -8.2960000476245388E-04
           4.5763012012712455E-04   -7.2873611065554116E-04   -1.9810871953921384E-04
          -2.5435809607747637E-04   -2.9857092396176589E-04    4.0812967127765794E-04
          -1.7369381694119345E-04    6.5701533355385809E-04    1.2674523034264429E-03
           2.5615963333001804E-04   -1.0911306554579157E-06    1.1679000472715948E-03
          -1.6308109884931863E-05    1.3149337651420236E-03    1.0407917755815049E-03
           8.9763869709667842E-04   -3.3652501425069005E-04    5.8254652403701374E-04
           1.0486726918927814E-03    1.4387708623748606E-04   -1.3227328924986720E-03
          -7.1280006661854703E-04    3.7576614693989464E-04   -7.8229807966761729E-04
          -4.9597517544693767E-05    2.0943390433201061E-05   -3.3577883355842314E-04