 # Version information for this restart file 
 # current date 2023-07-28 11:01:24.811
 # current working dir /mnt/lustre/indy2lfs/work/tc047/tc047/mrnuff-cirrus/cp2k/nuff-benchmarks/H2O-64-8node
 # Program compiled at                              Thu Jun 30 12:29:55 BST 2022
 # Program compiled on                                             cirrus-login3
 # Program compiled for                                             Cirrus-intel
 # Source code revision number                                       git:e635599
 &GLOBAL
   PRINT_LEVEL  LOW
   PROJECT_NAME H2O-64
   RUN_TYPE  MD
 &END GLOBAL
 &MOTION
   &MD
     ENSEMBLE  NVE
     STEPS  10
     TIMESTEP     4.9999999999999994E-01
     STEP_START_VAL  10
     TIME_START_VAL     4.9999999999999982E+00
     ECONS_START_VAL    -1.1007588181101341E+03
     TEMPERATURE     3.0000000000000000E+02
     &AVERAGES  T
       &RESTART_AVERAGES
         ITIMES_START  1
         AVECPU     2.3884403054602443E+00
         AVEHUGONIOT     0.0000000000000000E+00
         AVETEMP_BARO     0.0000000000000000E+00
         AVEPOT    -1.1010668160173034E+03
         AVEKIN     3.0070034549335412E-01
         AVETEMP     3.3142598856006106E+02
         AVEKIN_QM     0.0000000000000000E+00
         AVETEMP_QM     0.0000000000000000E+00
         AVEVOL     1.2909542132085598E+04
         AVECELL_A     2.3458682268415796E+01
         AVECELL_B     2.3458682268415796E+01
         AVECELL_C     2.3458682268415796E+01
         AVEALPHA     9.0000000000000000E+01
         AVEBETA     9.0000000000000000E+01
         AVEGAMMA     9.0000000000000000E+01
         AVE_ECONS    -1.0896372664354587E+01
         AVE_PRESS     0.0000000000000000E+00
         AVE_PXX     0.0000000000000000E+00
       &END RESTART_AVERAGES
     &END AVERAGES
   &END MD
 &END MOTION
 &FORCE_EVAL
   METHOD  QS
   &DFT
     BASIS_SET_FILE_NAME GTH_BASIS_SETS
     POTENTIAL_FILE_NAME POTENTIAL
     &SCF
       SCF_GUESS  ATOMIC
       &OT  T
         MINIMIZER  DIIS
       &END OT
       &PRINT
         &RESTART  OFF
         &END RESTART
       &END PRINT
     &END SCF
     &QS
       EPS_DEFAULT     9.9999999999999998E-13
       EXTRAPOLATION  PS
       EXTRAPOLATION_ORDER  3
     &END QS
     &MGRID
       CUTOFF     2.8000000000000000E+02
       REL_CUTOFF     3.0000000000000000E+01
     &END MGRID
     &XC
       DENSITY_CUTOFF     1.0000000000000000E-10
       GRADIENT_CUTOFF     1.0000000000000000E-10
       TAU_CUTOFF     1.0000000000000000E-10
       &XC_FUNCTIONAL  NO_SHORTCUT
         &PADE  T
         &END PADE
       &END XC_FUNCTIONAL
     &END XC
   &END DFT
   &SUBSYS
     &CELL
       A     1.2413800000000002E+01    0.0000000000000000E+00    0.0000000000000000E+00
       B     0.0000000000000000E+00    1.2413800000000002E+01    0.0000000000000000E+00
       C     0.0000000000000000E+00    0.0000000000000000E+00    1.2413800000000002E+01
       MULTIPLE_UNIT_CELL  1 1 1
     &END CELL
     &COORD
O    1.2265692089483853E+01    1.3554390129941889E+00    1.0875425741210384E+01
O    6.4523125712782097E+00    3.7059030017228261E+00    8.6472703373292124E+00
O    7.7679434805458830E-02    2.1684363409616196E+00    8.2608499727949027E+00
O    1.2086328917682382E+01    2.6383236471456160E+00    2.1708319631148023E+00
O    1.2290563434792459E+01    4.1705987030843552E+00    1.2102197401500753E+01
O    7.2035546534508512E+00    9.4146440982935986E-01    4.7596753308530682E+00
O    8.3332259924710890E+00    7.2077559238208115E+00    4.6827252174468468E+00
O    1.2331820354972917E+01    1.1521085584601183E+01    8.0815267568454718E+00
O    3.2742305248729089E+00    4.4591006237003459E+00    9.1745323461747326E+00
O    2.8601657947011221E+00    3.7871321994318294E+00    6.5410904120530784E+00
O    1.3797135980521755E+00    6.3917883108530082E+00    5.6509499049338285E-01
O    1.8717778176467981E+00    8.6859327223318594E+00    2.0908475002934939E+00
O    3.7724126920716672E+00    1.2107291686118550E+01    8.6205990989002608E+00
O    6.4253612010425414E+00    3.6667844669336049E+00    2.7875787966086061E+00
O    1.9996801569167353E+00    1.8525818618606400E+00    4.8671305057776015E+00
O    8.2870264289442641E+00    2.4221945186201546E+00    6.9417301194040899E+00
O    5.7524965525744012E+00    3.3354063225406878E+00    1.2486444073906748E+01
O    1.1313041873264012E+01    5.6568394091370697E+00    2.2481538681309741E+00
O    4.2889086332745299E+00    2.1146774663677328E+00    1.0586400462686685E+01
O    5.3988008779579646E+00    3.3584215761666432E+00    5.4859980676065865E+00
O    6.5093803283316030E+00    1.1870555907452674E+01    7.1448610258286549E-01
O    3.2525927590516734E+00    2.3434818290721111E+00    2.4132514479858886E+00
O    8.0086796499283821E+00    6.3565335203086182E+00    7.4977752039613588E+00
O    5.9288585788257446E+00    6.5082801666043668E+00    1.2195796701642463E+01
O    1.0610385294795593E+01    1.1861264429738661E+01    1.2200574174939947E+01
O    9.3403690756568700E+00    3.6890996107164051E+00    3.5273423653475393E+00
O    1.1111278086578300E+00    5.7890355206451325E+00    6.6473009501981553E+00
O    8.0194995343334590E+00    3.3269739508473091E+00    1.0869758841489812E+01
O    1.2376084676796195E+01    9.6748049821028950E+00    1.1772442429127491E+01
O    4.2098962719503321E+00    7.0914037241392229E+00    8.1403049780539369E+00
O    3.7839656891276201E+00    8.2290488153630559E+00    1.1585038748792439E+01
O    1.1076296436002774E+01    4.5429033328727000E+00    7.8327522122958424E+00
O    1.0435269965490583E+01    8.4217711221836495E+00    1.0328413587523457E+00
O    1.9828015281272269E+00    6.4005825276163728E+00    1.0353823655978466E+01
O    4.7041682767468771E+00    5.6227133611204183E-01    5.6097237226912355E+00
O    8.7178718108893953E+00    1.2242115811187311E+01    8.0976567639232133E+00
O    2.6327341025095174E+00    1.0520521873272870E+01    8.2905623926716507E-02
O    7.2399931187466340E+00    1.0511642196931669E+01    4.2432664330031367E+00
O    2.2807064781620023E+00    2.7612056427343035E-01    1.0807250569989247E+01
O    8.8632061138830274E+00    9.4642072500211694E-01    1.3400856795970859E+00
O    1.9443088048743595E+00    8.0893935868695905E+00    7.5355059867710770E+00
O    9.6598248299588061E+00    8.0355046451626109E+00    9.8565400345209433E+00
O    1.0903669851584214E+01    8.3307153998975938E+00    6.4773146916028388E+00
O    3.5124567442237442E+00    4.8693650210822499E+00    1.5451764009708224E+00
O    7.9775830453592080E+00    8.6026723333304975E+00    1.2050849513770332E+01
O    8.3694035479504567E+00    1.0019371052443075E+01    6.6836141760228838E+00
O    5.6546743218576410E+00    6.0810664230943976E+00    5.5283846573827731E+00
O    1.1742547847645342E+01    1.6241840639034237E+00    5.0859575162073023E+00
O    9.7585719615142814E+00    9.8110347715519080E+00    3.5364867774941029E+00
O    3.9627876574400518E+00    1.0548914651573710E+01    4.6848634346388982E+00
O    9.0110847254969151E-01    6.3699180308686785E+00    4.0614677068442351E+00
O    6.8825857356121789E+00    6.4084220847945268E+00    2.5046902581440325E+00
O    3.8180799995398447E+00    6.6391276583280776E+00    3.7786506828597375E+00
O    6.5639457974901614E+00    8.3081696931558131E+00    8.8142644496195661E+00
O    9.7792965800925256E+00    1.3440562766335162E-01    3.8518038249084694E+00
O    4.1040770115658418E+00    1.1645978558721417E+01    2.2167390496173645E+00
O    5.3225394392113081E+00    8.7370879819812703E+00    2.7520568939068779E+00
O    1.0008064086737198E+01    5.3735087324373403E+00    5.3757728940149487E+00
O    1.2260297782908806E+01    8.6464340629358567E+00    3.9709777917871598E+00
O    2.3431345497117095E+00    1.0747243885368784E+01    6.8128217267251667E+00
O    7.0016612916653971E+00    6.6240597665991441E-01    1.0534341561687874E+01
O    5.1725047982212953E+00    1.0218495319125113E+01    1.0357205957141357E+01
O    1.1186316801594453E+01    5.8851524495734360E+00    1.0299193203865903E+01
O    1.2277001782589684E+01    8.9569716794259708E+00    9.0707884188585961E+00
H    1.2357840653884656E+01    2.3335995753224803E+00    1.1187202568866539E+01
H    1.1946181003855878E+01    1.5338243304140928E+00    9.8820686313881012E+00
H    5.5871540557001023E+00    3.4492983737423297E+00    9.0442905792546711E+00
H    6.8930493554895822E+00    3.0239782285795447E+00    7.9852283560213317E+00
H   -1.4374297116858317E-01    1.5098214846062936E+00    7.5263531243320463E+00
H   -3.8865416711531037E-01    3.0530974755006279E+00    7.9298823362648267E+00
H    1.2176354233153297E+01    2.9746344065100518E+00    1.1924463434422241E+00
H    1.2991627169715407E+01    2.9143170210549849E+00    2.5155346727348449E+00
H    1.1517585159652084E+01    4.3255122446517751E+00    1.1434691026735909E+01
H    1.2784953658522264E+01    5.0635466714147457E+00    1.2040055000819521E+01
H    6.9671401310527052E+00    1.7387343976975833E+00    4.1849967664903920E+00
H    6.2296009063341167E+00    6.8946782722642896E-01    5.1579113656949236E+00
H    7.7273594948731024E+00    7.2216808380988997E+00    5.4888761780280841E+00
H    9.1691701765467233E+00    6.6296086344986280E+00    4.9460727574878138E+00
H    1.2846883768257294E+01    1.1781070688349477E+01    8.9005192602392977E+00
H    1.1983330930254704E+01    1.0563456761595662E+01    8.3168613221529260E+00
H    3.5249173108184562E+00    3.8402074967245086E+00    9.9510006399902107E+00
H    2.4297337650179767E+00    4.9330989925197501E+00    9.5245628999132972E+00
H    2.1731627523307089E+00    4.5583640086449737E+00    6.3013579985290837E+00
H    2.8563500932213164E+00    3.8576048156116416E+00    7.5841394106043634E+00
H    1.1402120515025407E+00    7.1967347480532879E+00    1.1594244541636631E+00
H    2.2451038169252686E+00    6.0044688738684648E+00    1.0028737587405065E+00
H    2.8159635337993176E+00    8.9701748198799045E+00    2.2995199891602240E+00
H    1.3289544665064383E+00    8.9939926467778921E+00    2.8983257079438323E+00
H    4.4550218369064076E+00    1.1540339425003648E+01    9.1644203320315842E+00
H    3.0505860859907035E+00    1.2474023132570984E+01    9.2862357274702649E+00
H    5.8591510063951082E+00    3.4580809397753454E+00    3.6616773633305972E+00
H    5.8328342793243735E+00    3.4003555439701163E+00    1.9823495664218302E+00
H    9.5573469725968740E-01    1.6451477306432192E+00    4.8407733836342608E+00
H    2.2282991647306272E+00    2.4813299829884197E+00    5.6872650230021247E+00
H    8.4431290012363380E+00    1.6050270153560668E+00    7.5442513472485357E+00
H    8.0660702671730835E+00    2.0137128293831990E+00    6.0338191030230659E+00
H    5.2179579256210760E+00    2.8944435585802029E+00    1.1676379626020802E+01
H    6.6808372388709794E+00    3.4137338960722978E+00    1.1974227321955011E+01
H    1.0787628803145953E+01    6.5181395670630700E+00    2.0987991922633094E+00
H    1.1679773573101574E+01    5.3602522151474554E+00    1.3423877172512293E+00
H    3.4353203684191911E+00    1.5422281194349154E+00    1.0899348788956155E+01
H    4.8360131199370588E+00    1.4266306188288580E+00    1.0089887937303523E+01
H    4.3860802582003231E+00    3.3639520802572651E+00    5.6883523933773459E+00
H    5.6851424648158737E+00    4.3694414775810397E+00    5.5473743673657028E+00
H    6.2905172776227989E+00    1.1824099733747895E+01    1.7188529435633269E+00
H    5.6254822935022597E+00    1.2118652077614941E+01    3.2827489265266258E-01
H    3.5448338646077295E+00    1.3905272139791902E+00    2.1815170599104925E+00
H    2.6082617908450598E+00    2.2011793682000005E+00    3.2448585926833466E+00
H    7.1214310944128689E+00    5.8746986475790060E+00    7.5240902705253188E+00
H    8.6555160452209119E+00    5.7349833608754288E+00    7.0296645633629424E+00
H    6.0004465275651695E+00    5.6511979030143529E+00    1.1673025686979758E+01
H    6.2576534574145724E+00    6.3249880564335186E+00    1.3168261180251969E+01
H    1.1110393485508634E+01    1.2636559250997802E+01    1.1695509562619700E+01
H    1.0264574453193305E+01    1.2297166054267059E+01    1.3044673119309856E+01
H    9.9063257583769264E+00    4.0523254539287290E+00    2.7328096710820056E+00
H    8.5320976562309436E+00    3.4662435851516480E+00    2.9418258347987964E+00
H    1.4549325922369760E+00    6.6684406032653083E+00    7.1063381287426504E+00
H    1.0013233336711664E+00    6.1758231958589782E+00    5.6553319488925755E+00
H    7.9834584102606883E+00    3.6965662970357638E+00    9.9295362401112381E+00
H    8.0702893407904863E+00    2.3148727995364977E+00    1.0750118168091245E+01
H    1.1741851247338161E+01    1.0457041172522615E+01    1.2099135806994369E+01
H    1.2145140467199582E+01    8.9346530857759152E+00    1.2412210742862900E+01
H    3.3373535314761602E+00    7.6121200308664658E+00    7.8531045761947977E+00
H    3.8438071109321048E+00    6.2417161568831911E+00    8.6114175129816868E+00
H    3.1132077807634091E+00    7.6196920981178025E+00    1.1070308623801624E+01
H    4.4752997918975144E+00    7.6309327249728955E+00    1.2076616644959580E+01
H    1.1595109347938996E+01    4.9846383472196969E+00    7.0588447442732729E+00
H    1.0300198428129461E+01    4.1359917521741396E+00    7.3179795841152044E+00
H    1.0066803629045298E+01    8.9449101926880399E+00    1.8648409458420523E+00
H    9.5721275817986342E+00    8.2654871620120591E+00    4.9820470823277324E-01
H    1.3188214514388819E+00    6.6901027276296086E+00    9.6503048603164228E+00
H    1.4021624816973353E+00    6.4512365186877689E+00    1.1227722789147849E+01
H    4.1225373888742007E+00    1.3301382656581151E+00    5.2661059713498561E+00
H    4.6863100279912366E+00    6.4323888153992348E-01    6.6181558656212562E+00
H    9.4703533710562127E+00    1.2334177792059259E+01    8.7409520154266005E+00
H    8.8486737260987116E+00    1.1353175343935931E+01    7.5414016813718687E+00
H    1.7346635260616901E+00    1.0023247752456168E+01    1.4531246290845795E-01
H    3.3374323737186726E+00    9.8445600332825300E+00   -2.3573946363515957E-01
H    7.0505799823409836E+00    1.1506005604268200E+01    4.1255571139603031E+00
H    6.4716019298302934E+00    9.9354966266941727E+00    3.7910911532775868E+00
H    1.3268589592359967E+00    5.8377393429970292E-01    1.1128929736799080E+01
H    2.5223619020800294E+00   -5.4513600115496541E-01    1.1460522258349812E+01
H    8.7695024945572868E+00    1.8730405160138983E+00    9.9029984538928795E-01
H    8.0908940305261510E+00    3.3984351975157367E-01    9.9164118000222745E-01
H    1.1203607709244674E+00    8.3716512006963963E+00    8.1792323344825295E+00
H    2.0883187077769030E+00    8.9941496096237739E+00    7.0138877035397797E+00
H    8.9092455661172352E+00    7.7938840102072131E+00    9.2222118549480214E+00
H    9.0650442925882189E+00    8.4492400512117811E+00    1.0614283870982348E+01
H    1.0125293357175588E+01    7.6972294325259636E+00    6.4507709233859281E+00
H    1.0499855152538249E+01    9.1992705817145115E+00    6.1555311709818064E+00
H    3.4971231604226132E+00    3.9586904012078841E+00    2.1122844778208734E+00
H    4.0584146620662667E+00    4.5845739999390185E+00    7.4299547661121002E-01
H    7.3547300979710659E+00    9.3907717765818681E+00    1.2034662471095654E+01
H    7.3341917810683190E+00    7.7711469163735387E+00    1.2054219542751133E+01
H    7.8271815569077221E+00    1.0161811172290347E+01    5.7814619639485274E+00
H    7.7120113817886748E+00    9.5092512996364587E+00    7.2843726304682912E+00
H    5.2899463871882784E+00    6.4889429596075212E+00    6.3929757321027552E+00
H    4.8678252868835870E+00    6.3175211180858755E+00    4.8313586361436878E+00
H    1.1521862541305824E+01    2.1923283626798051E+00    4.2496614328178088E+00
H    1.1222791846957472E+01    7.8414795598393405E-01    4.7829538343866806E+00
H    8.8119942350215368E+00    9.6778779613702497E+00    3.9666686831538227E+00
H    9.9342844970877540E+00    1.0814156988790515E+01    3.7816372858607643E+00
H    3.1082289528957388E+00    1.0546326407174602E+01    5.2868803913858171E+00
H    4.3132584907103730E+00    1.1455620653057801E+01    5.0610780320733992E+00
H    4.2220406784299452E-01    7.3045102192444640E+00    3.8013135649935021E+00
H    2.9772343931225098E-01    5.7724401932039493E+00    3.4526995513597289E+00
H    7.5860591209725445E+00    6.5678847601546364E+00    3.2915836809345356E+00
H    6.6758385347283928E+00    5.3831754309176514E+00    2.5200133494029098E+00
H    3.8532534172200239E+00    6.3060046348700274E+00    2.8123783749706064E+00
H    2.7953246440734865E+00    6.5485847389780067E+00    3.9537741358608880E+00
H    5.5553176437612324E+00    8.0120599991629540E+00    8.6583941104718942E+00
H    6.9993930795499315E+00    7.4780238970675166E+00    8.4104344163929223E+00
H    9.5571588990614416E+00    7.3280446145754041E-01    3.0174818797265810E+00
H    8.9237164310792814E+00    1.3437510586196802E-01    4.4076447871977038E+00
H    3.8482457315676513E+00    1.1174438455171408E+01    1.3441470566654461E+00
H    3.9626056228578541E+00    1.0964278466897484E+01    3.0102551897947190E+00
H    5.9449661422371305E+00    7.8891857853090404E+00    2.7995741535957968E+00
H    4.7652120121299122E+00    8.7229381074889538E+00    3.5906717261655166E+00
H    1.0905815782848547E+01    5.5302201800695423E+00    4.9342869455825058E+00
H    9.5033245323310975E+00    4.6732708376732406E+00    4.7171193166483123E+00
H    1.1491942104116953E+01    9.0018887406787371E+00    3.3983649908366851E+00
H    1.1959903629040010E+01    8.7851547644293237E+00    4.9401026898660048E+00
H    2.9404439844273558E+00    1.1333326721638571E+01    7.4881123877730476E+00
H    1.3993518978819195E+00    1.1120275827043004E+01    6.8063456551229349E+00
H    7.2181951384380341E+00    1.2809608485344723E-01    9.7032371258681405E+00
H    7.1648660378592002E+00    1.0772078745137920E-01    1.1367500988399684E+01
H    4.8113412051055420E+00    9.3237474535606761E+00    1.0837702423611699E+01
H    6.0816481698035423E+00    9.8060697913094739E+00    1.0186927365163314E+01
H    1.0565212262639276E+01    6.7306908548564852E+00    1.0314443980527679E+01
H    1.1239043366238068E+01    5.5938377372086840E+00    9.3143651163971679E+00
H    1.2188456954752573E+01    8.9927460848971936E+00    1.0127821223536818E+01
H    1.1415764242458327E+01    8.6329965781013804E+00    8.6365688433574093E+00
     &END COORD
     &VELOCITY
           2.4353373553032167E-04   -1.2006097602618049E-04    8.6380096426996402E-05
           5.1311970177307371E-05   -1.2708266215092511E-06   -1.4048482609393595E-05
          -1.3298767757237193E-04   -8.3910828186692566E-05   -1.7227772179703374E-04
           3.2311111387456056E-04   -2.8974228281225257E-04    2.2815855771130239E-04
           3.6807112799806997E-04   -1.6540691872245092E-04    8.2168021722557973E-05
           8.6843810078605265E-05   -1.6733145785035867E-04    2.3233906169806883E-04
          -1.9144732815598475E-04    3.6490306372389065E-05    1.7692428816477878E-04
          -2.7339212137054384E-04   -2.0181330323258034E-06   -2.5185283188773426E-04
          -2.9114797156551116E-04    1.4202524657047438E-04   -9.4207613534435063E-05
           4.9604684382105296E-05    1.9764986075566156E-04   -3.9675655903252374E-05
          -1.0338266296076909E-04    2.5533554886989277E-04   -1.7753567723172953E-04
           1.2393271803089412E-04   -5.1522817964857372E-05    2.4869105054673389E-04
           3.7171385612187350E-05    1.3912087635392821E-04   -2.6001104941368206E-04
          -9.0584380442861173E-05   -5.4256969622957585E-05    1.3571849163710275E-04
          -1.3532069034136330E-05    2.9312535024626036E-04   -1.1035216194535080E-04
           3.4365663856424853E-04    1.2592891247481029E-04    1.2984947778446328E-04
           3.1061310688683933E-05   -2.1491061234653745E-04    1.3642911352135194E-04
          -1.1197980598767953E-04    8.8708519144874474E-05    8.1551359029885160E-05
           7.2553977151973778E-05   -7.4882564048221588E-05   -3.7593240430637175E-05
          -3.9311008768689879E-05    7.7794970774544377E-05   -4.9503853884611175E-05
           1.3050850736339865E-04    3.2997372840354662E-05    2.3384938882059416E-04
          -2.3506710107541314E-04   -1.3038351983385242E-04   -7.8872779761256947E-05
           2.2656471395841906E-04    3.8984618351863631E-06   -1.0674489559572676E-04
          -4.8910812396622523E-04   -8.8250996371585800E-05    4.1168871694169981E-05
          -2.3516505104582505E-04    3.0141522875401100E-05   -4.3307021529615734E-05
           2.3874077440385130E-04    1.6479626533086274E-04   -6.5961174412903547E-06
           2.1570400441885113E-06   -3.6687604474150621E-04    1.9056449024583156E-05
           1.5263290745824818E-04   -4.5423683353376925E-05   -4.7828240981220896E-05
          -2.4361660474255298E-04   -1.5799538490286107E-04    1.4701044899620146E-04
          -4.6332302279356151E-05    6.6958418741072095E-05   -1.4093723621374919E-04
           7.0402526348231664E-05    1.4787938508817604E-04    2.3294646136345223E-04
          -1.0541845847123675E-04    9.0959878375342955E-05    1.4239486316666518E-04
           3.9447066267661672E-04    6.7697585287815025E-05    1.1078543440051204E-04
          -7.7642050397507998E-05   -1.2536442818304825E-04   -1.9896428319719756E-04
           4.0834731830745265E-04    1.4767279244978529E-04    2.0697580192061538E-05
          -2.3059415804784975E-04   -1.2069261926298914E-04    1.1528847271991600E-04
          -2.2453224222898204E-04    3.2508315209931447E-04   -1.1011175869280456E-04
          -2.5223464559626288E-05    3.9102949516854916E-04    1.6353834116287558E-04
           2.2717843315391104E-05   -6.2765751650363341E-06    4.4671040028094832E-05
          -2.2749659830626146E-04   -6.9576305502755756E-06    6.3788388337635262E-05
          -7.5841302719107412E-05    8.7087799013940896E-05   -2.6939094015557226E-04
          -1.5166914072037844E-04   -1.6482446184779646E-04   -8.8619423403647849E-05
           8.3255811654686673E-06   -5.3065384632135028E-05   -7.5044278375906292E-05
           6.6403553282594579E-05    1.1865592146639471E-04   -1.6876922794142280E-04
          -3.6854176965737560E-04   -4.4916679521470515E-04   -7.2212204724653143E-05
          -1.2514834926122834E-04   -2.1658705550508880E-04    1.4279407557499857E-05
           1.5301292386496996E-04    7.8212466735012539E-05   -2.6042789655649840E-04
           1.1597437780940075E-04    1.3153166326598339E-04    1.9714489346083838E-05
          -2.7586288469056659E-05    4.9135802992539774E-05   -8.2847135185212784E-05
           1.7533037836993444E-04   -1.0200057778935400E-04   -1.5955910871405387E-05
           9.1305293483182127E-06   -1.7063363096503635E-04   -1.2704533408633634E-04
           2.0532414019942930E-04   -1.8523108331002525E-04    1.5576953259987110E-04
          -9.5082342049032865E-05    3.8898283928862461E-04    6.8143354602166845E-05
          -3.3468517682005389E-05    1.1413973594073976E-04    4.8372670605306837E-05
          -3.2167308794373316E-04   -6.7373694362675397E-05   -3.3440505798346397E-04
          -1.0565699375453497E-04   -1.8612919959402660E-04   -4.1185047196318468E-05
           3.0227443464018257E-04   -1.9476821401491998E-08   -4.0898192670174303E-05
           3.4132859751025244E-04   -7.5666618758215093E-05    3.1369871723535374E-04
           4.8774504486439790E-06    9.5432986766282011E-05    4.0463993790905547E-05
          -7.3525642130688410E-05   -1.1023344657243673E-04   -1.6990266178511649E-04
          -9.5305467321249646E-05    1.5924492797695581E-04    1.0050784054868220E-04
           2.9577992716615725E-04   -2.0302338272636458E-04   -3.8000268558999265E-06
           3.3426751501433675E-05    2.9960856876484133E-05    2.2957098674730849E-05
           2.1247046209903165E-04   -1.8773508816478205E-04   -7.1323934924216083E-05
          -4.5158839413458429E-04   -3.6143060084416944E-05   -6.1976176341667854E-04
           9.6706711087944381E-04   -4.1494673938139803E-04   -1.4270244721927600E-03
           7.4657709739080430E-04    7.4979183341310435E-04   -2.9716006641469762E-05
           1.1944835029922820E-03   -2.4887952169371842E-04   -4.6965328168717272E-04
           3.3415678178157215E-04   -4.4057529886047664E-04   -4.5347033644985634E-04
           1.1012796129950049E-03    2.9083917956219490E-04   -1.2194190254980661E-03
           2.2415342341946463E-04    1.5937251548460124E-03   -3.7781211910747274E-04
           1.0073465758472894E-03   -6.8157982680665762E-04    2.6183752026231051E-04
          -6.9769183630395424E-05    2.4841597115841677E-05   -1.3349984298229300E-04
          -6.5395783735779957E-04   -1.1729839031652810E-04    1.7209949837902443E-04
          -6.3912725034229320E-04   -9.4833908163936582E-04   -2.5753189732415316E-04
          -3.9187509729485053E-04   -2.4417797176647126E-04   -5.0822500047682372E-04
           2.8904185307979726E-04   -2.0455475311458361E-03   -7.4488003304551268E-04
           3.8533435940317517E-04   -1.5649598638802420E-03   -8.1999331590010835E-04
           6.6163782210859449E-04   -2.0530137992579424E-04   -4.7022778535257592E-04
          -4.8571775216854068E-05   -1.4283455067481876E-03    8.4970777264388843E-04
          -5.1040502071854007E-04    9.0124041076304910E-04   -4.3717828656692420E-04
           2.7962496774520560E-04    1.1112791909809862E-04   -5.6980553870057161E-04
          -1.5080494509595974E-03    7.3672779722952324E-04   -5.7541529091671663E-06
           2.4475429620864368E-04    9.7437756642749758E-04   -4.8339679944546770E-04
          -8.5981680084473792E-05    5.9512037268188880E-04   -4.8949501756139697E-05
          -6.8266467564201037E-04   -5.5567223333822559E-04    7.1350489602176525E-04
           4.8033714496660844E-05    6.5011279413145254E-04   -7.7943973949978599E-04
           8.0491911100689779E-05   -7.8343749753089040E-04    7.2435736498175426E-04
           2.5839724571360956E-04    7.5578985185865939E-05   -5.8507007757628777E-04
           3.2468632065886087E-04   -2.7324024724852505E-04    2.5249479694364289E-04
          -1.0539062839298125E-03    5.0616494373551630E-04    7.1049452486514320E-04
           8.0541579376959853E-04   -1.4428395473721549E-04   -9.1111624630339956E-04
          -9.3901405513548245E-05   -1.7440336410010424E-04   -6.6695306718375029E-04
          -5.9667439631785771E-04    2.1020879938520353E-03   -1.6524975843590484E-04
          -5.9413689338875012E-04   -1.8314218672782560E-04   -3.0878549941448070E-04
          -1.1299139623047644E-04   -1.9706794255801760E-04    5.4164798334830613E-04
           3.7379192866440205E-04   -2.2187500988659993E-04   -3.6215118741408112E-04
          -5.2111287107594153E-04    8.9091209793463913E-04   -5.6207250900331177E-04
           6.7919292604894088E-04    1.3343181454899367E-04   -5.4958333089214764E-04
          -5.0955912349173982E-05   -7.8811310899946376E-04    5.3306738438392543E-04
          -8.4615276347998889E-05   -4.3969810879961887E-04   -1.5061331385131094E-03
           1.9621493944113350E-04    7.0658921104477430E-04    7.9834173948593098E-04
          -3.1086266728936490E-04    7.4710976671270518E-04    4.9983161016215339E-04
          -7.7088036734648824E-04    8.7923123998366192E-04    4.4906439902494654E-04
           4.7843808737785764E-04    2.0885304145812160E-04    9.9081078441259885E-04
           2.7383478091249985E-04   -1.2076470164485128E-05    2.0312636572850933E-03
           2.2238602224562877E-04    4.5732113705679561E-04    2.0297495633874291E-03
          -1.3983314820372925E-04    6.4110517559052746E-04    2.3541721875373469E-04
           1.0634351964100221E-03   -8.1406755449520206E-04    2.5592615929065609E-04
           5.5764666824431933E-04   -2.4944020395974560E-04    1.0095491375688283E-03
           8.2355304835117764E-04    4.6265598282461647E-04    1.0873683440583326E-03
           1.0554542732468582E-03    1.4711843503866034E-03   -1.9257994644669319E-04
          -5.9301436635873122E-04    1.4338243179570687E-03   -1.0518598720319699E-03
           1.7009542630748054E-04   -2.7229621441594376E-04   -1.8275874433967471E-04
          -3.9794180044650570E-04    1.1377334676043720E-03    1.5111872074684364E-04
          -2.1010779020690112E-04    2.5908254734104586E-04    1.2965840741038955E-03
           5.7014687399035036E-04    4.3663748723672213E-04   -1.4622705924517677E-04
           2.7451658006110374E-04   -1.1055104188475515E-04   -2.7011911347268652E-04
          -1.5488517943965990E-03   -4.8268639177294782E-04    1.0661735519985832E-03
           1.1223093817509385E-04    6.1336181166980687E-04   -2.4337739021457178E-04
          -8.4642821008877318E-04    2.7314900747529402E-04    4.4966165017798200E-04
          -9.0281864257807571E-04    4.6471968390752517E-04   -2.6632644266277677E-04
          -1.1909602595283186E-03    3.2546725737733252E-05   -5.5177771590647566E-05
           2.6878284876965131E-04   -1.1019214431219958E-03    6.7804196597794617E-04
           3.1926309388941824E-04    1.0177813137657746E-03   -3.0847823992562635E-04
          -4.2284471691675406E-04    4.3959034011643459E-04   -8.2960000476392807E-04
           4.5763012013618550E-04   -7.2873611065202922E-04   -1.9810871954739346E-04
          -2.5435809608067255E-04   -2.9857092395494886E-04    4.0812967128032079E-04
          -1.7369381694175913E-04    6.5701533356060389E-04    1.2674523034350166E-03
           2.5615963332892440E-04   -1.0911306522288906E-06    1.1679000472681578E-03
          -1.6308109867028961E-05    1.3149337651285060E-03    1.0407917756066871E-03
           8.9763869710602923E-04   -3.3652501425919355E-04    5.8254652402314885E-04
           1.0486726918975007E-03    1.4387708623213541E-04   -1.3227328924954578E-03
          -7.1280006662092588E-04    3.7576614693757147E-04   -7.8229807967472305E-04
          -4.9597517530962028E-05    2.0943390436449785E-05   -3.3577883355378249E-04