 # Version information for this restart file 
 # current date 2023-07-20 12:12:38.027
 # current working dir /mnt/lustre/indy2lfs/work/tc047/tc047/mrnuff-cirrus/cp2k
 # Program compiled at                              Thu Jun 30 12:29:55 BST 2022
 # Program compiled on                                             cirrus-login3
 # Program compiled for                                             Cirrus-intel
 # Source code revision number                                       git:e635599
 &GLOBAL
   PRINT_LEVEL  LOW
   PROJECT_NAME H2O-64
   RUN_TYPE  MD
 &END GLOBAL
 &MOTION
   &MD
     ENSEMBLE  NVE
     STEPS  10
     TIMESTEP     4.9999999999999994E-01
     STEP_START_VAL  10
     TIME_START_VAL     4.9999999999999982E+00
     ECONS_START_VAL    -1.1007588181112944E+03
     TEMPERATURE     3.0000000000000000E+02
     &AVERAGES  T
       &RESTART_AVERAGES
         ITIMES_START  1
         AVECPU     1.7499581476848107E+01
         AVEHUGONIOT     0.0000000000000000E+00
         AVETEMP_BARO     0.0000000000000000E+00
         AVEPOT    -1.1010668160173061E+03
         AVEKIN     3.0070034549195834E-01
         AVETEMP     3.3142598855852265E+02
         AVEKIN_QM     0.0000000000000000E+00
         AVETEMP_QM     0.0000000000000000E+00
         AVEVOL     1.2909542132085598E+04
         AVECELL_A     2.3458682268415796E+01
         AVECELL_B     2.3458682268415796E+01
         AVECELL_C     2.3458682268415796E+01
         AVEALPHA     9.0000000000000000E+01
         AVEBETA     9.0000000000000000E+01
         AVEGAMMA     9.0000000000000000E+01
         AVE_ECONS    -1.0896370953934147E+01
         AVE_PRESS     0.0000000000000000E+00
         AVE_PXX     0.0000000000000000E+00
       &END RESTART_AVERAGES
     &END AVERAGES
   &END MD
 &END MOTION
 &FORCE_EVAL
   METHOD  QS
   &DFT
     BASIS_SET_FILE_NAME GTH_BASIS_SETS
     POTENTIAL_FILE_NAME POTENTIAL
     &SCF
       SCF_GUESS  ATOMIC
       &OT  T
         MINIMIZER  DIIS
       &END OT
       &PRINT
         &RESTART  OFF
         &END RESTART
       &END PRINT
     &END SCF
     &QS
       EPS_DEFAULT     9.9999999999999998E-13
       EXTRAPOLATION  PS
       EXTRAPOLATION_ORDER  3
     &END QS
     &MGRID
       CUTOFF     2.8000000000000000E+02
       REL_CUTOFF     3.0000000000000000E+01
     &END MGRID
     &XC
       DENSITY_CUTOFF     1.0000000000000000E-10
       GRADIENT_CUTOFF     1.0000000000000000E-10
       TAU_CUTOFF     1.0000000000000000E-10
       &XC_FUNCTIONAL  NO_SHORTCUT
         &PADE  T
         &END PADE
       &END XC_FUNCTIONAL
     &END XC
   &END DFT
   &SUBSYS
     &CELL
       A     1.2413800000000002E+01    0.0000000000000000E+00    0.0000000000000000E+00
       B     0.0000000000000000E+00    1.2413800000000002E+01    0.0000000000000000E+00
       C     0.0000000000000000E+00    0.0000000000000000E+00    1.2413800000000002E+01
       MULTIPLE_UNIT_CELL  1 1 1
     &END CELL
     &COORD
O    1.2265692089483860E+01    1.3554390129942206E+00    1.0875425741210265E+01
O    6.4523125712782647E+00    3.7059030017221586E+00    8.6472703373296831E+00
O    7.7679434805128608E-02    2.1684363409608878E+00    8.2608499727958371E+00
O    1.2086328917682691E+01    2.6383236471452087E+00    2.1708319631147863E+00
O    1.2290563434792826E+01    4.1705987030839751E+00    1.2102197401498962E+01
O    7.2035546534510999E+00    9.4146440982998270E-01    4.7596753308532680E+00
O    8.3332259924703749E+00    7.2077559238198585E+00    4.6827252174463512E+00
O    1.2331820354972974E+01    1.1521085584601821E+01    8.0815267568457578E+00
O    3.2742305248732011E+00    4.4591006237013824E+00    9.1745323461753845E+00
O    2.8601657947003560E+00    3.7871321994318312E+00    6.5410904120530313E+00
O    1.3797135980519895E+00    6.3917883108528546E+00    5.6509499049383505E-01
O    1.8717778176475246E+00    8.6859327223304739E+00    2.0908475002939428E+00
O    3.7724126920718568E+00    1.2107291686118661E+01    8.6205990989008576E+00
O    6.4253612010426995E+00    3.6667844669331893E+00    2.7875787966085732E+00
O    1.9996801569168423E+00    1.8525818618603163E+00    4.8671305057776628E+00
O    8.2870264289444702E+00    2.4221945186205502E+00    6.9417301194042134E+00
O    5.7524965525745397E+00    3.3354063225407562E+00    1.2486444073906942E+01
O    1.1313041873263161E+01    5.6568394091369427E+00    2.2481538681307200E+00
O    4.2889086332736754E+00    2.1146774663677665E+00    1.0586400462685699E+01
O    5.3988008779578198E+00    3.3584215761664500E+00    5.4859980676071807E+00
O    6.5093803283322558E+00    1.1870555907454515E+01    7.1448610258290979E-01
O    3.2525927590511792E+00    2.3434818290721284E+00    2.4132514479853771E+00
O    8.0086796499287445E+00    6.3565335203078375E+00    7.4977752039630339E+00
O    5.9288585788263921E+00    6.5082801666045524E+00    1.2195796701642323E+01
O    1.0610385294795016E+01    1.1861264429738872E+01    1.2200574174940183E+01
O    9.3403690756566196E+00    3.6890996107161955E+00    3.5273423653474891E+00
O    1.1111278086574803E+00    5.7890355206449255E+00    6.6473009501982441E+00
O    8.0194995343344146E+00    3.3269739508475715E+00    1.0869758841489512E+01
O    1.2376084676795111E+01    9.6748049821026036E+00    1.1772442429126516E+01
O    4.2098962719505941E+00    7.0914037241396430E+00    8.1403049780539387E+00
O    3.7839656891281619E+00    8.2290488153622352E+00    1.1585038748791352E+01
O    1.1076296436002361E+01    4.5429033328729762E+00    7.8327522122964375E+00
O    1.0435269965490951E+01    8.4217711221836975E+00    1.0328413587524647E+00
O    1.9828015281260551E+00    6.4005825276154642E+00    1.0353823655978349E+01
O    4.7041682767470361E+00    5.6227133611187086E-01    5.6097237226914851E+00
O    8.7178718108893367E+00    1.2242115811187665E+01    8.0976567639228438E+00
O    2.6327341025098510E+00    1.0520521873273916E+01    8.2905623926836369E-02
O    7.2399931187461029E+00    1.0511642196931618E+01    4.2432664330038357E+00
O    2.2807064781625366E+00    2.7612056427440768E-01    1.0807250569989606E+01
O    8.8632061138829883E+00    9.4642072500184993E-01    1.3400856795958547E+00
O    1.9443088048744270E+00    8.0893935868700719E+00    7.5355059867714571E+00
O    9.6598248299589820E+00    8.0355046451621543E+00    9.8565400345205347E+00
O    1.0903669851583768E+01    8.3307153998972598E+00    6.4773146916037927E+00
O    3.5124567442236319E+00    4.8693650210824293E+00    1.5451764009706543E+00
O    7.9775830453595660E+00    8.6026723333307658E+00    1.2050849513768416E+01
O    8.3694035479505633E+00    1.0019371052443914E+01    6.6836141760233270E+00
O    5.6546743218562154E+00    6.0810664230938665E+00    5.5283846573824240E+00
O    1.1742547847645843E+01    1.6241840639033902E+00    5.0859575162070003E+00
O    9.7585719615139777E+00    9.8110347715517729E+00    3.5364867774937556E+00
O    3.9627876574401211E+00    1.0548914651573311E+01    4.6848634346389622E+00
O    9.0110847254934601E-01    6.3699180308686483E+00    4.0614677068442200E+00
O    6.8825857356123352E+00    6.4084220847943127E+00    2.5046902581437220E+00
O    3.8180799995398296E+00    6.6391276583276984E+00    3.7786506828602753E+00
O    6.5639457974898656E+00    8.3081696931561186E+00    8.8142644496192215E+00
O    9.7792965800927814E+00    1.3440562766348271E-01    3.8518038249085542E+00
O    4.1040770115663667E+00    1.1645978558720788E+01    2.2167390496168662E+00
O    5.3225394392105692E+00    8.7370879819810394E+00    2.7520568939067465E+00
O    1.0008064086737427E+01    5.3735087324374211E+00    5.3757728940147187E+00
O    1.2260297782909152E+01    8.6464340629356506E+00    3.9709777917879725E+00
O    2.3431345497115781E+00    1.0747243885369123E+01    6.8128217267246445E+00
O    7.0016612916648784E+00    6.6240597665986967E-01    1.0534341561687816E+01
O    5.1725047982214658E+00    1.0218495319125378E+01    1.0357205957141661E+01
O    1.1186316801595082E+01    5.8851524495731899E+00    1.0299193203865471E+01
O    1.2277001782589613E+01    8.9569716794251093E+00    9.0707884188586352E+00
H    1.2357840653885553E+01    2.3335995753199024E+00    1.1187202568871790E+01
H    1.1946181003858106E+01    1.5338243304177359E+00    9.8820686313870212E+00
H    5.5871540556940831E+00    3.4492983737472453E+00    9.0442905792447412E+00
H    6.8930493555000663E+00    3.0239782285857602E+00    7.9852283560216311E+00
H   -1.4374297116262857E-01    1.5098214846131390E+00    7.5263531243207460E+00
H   -3.8865416711125300E-01    3.0530974754999542E+00    7.9298823362580508E+00
H    1.2176354233144016E+01    2.9746344065255168E+00    1.1924463434443007E+00
H    1.2991627169716411E+01    2.9143170210536424E+00    2.5155346727347552E+00
H    1.1517585159642890E+01    4.3255122446535141E+00    1.1434691026737761E+01
H    1.2784953658521692E+01    5.0635466714172424E+00    1.2040055000845770E+01
H    6.9671401310447374E+00    1.7387343976897882E+00    4.1849967664811727E+00
H    6.2296009063339577E+00    6.8946782722755617E-01    5.1579113656977240E+00
H    7.7273594948759223E+00    7.2216808381072726E+00    5.4888761780282360E+00
H    9.1691701765556157E+00    6.6296086345095695E+00    4.9460727574910281E+00
H    1.2846883768256941E+01    1.1781070688340115E+01    8.9005192602444581E+00
H    1.1983330930248687E+01    1.0563456761597468E+01    8.3168613221476217E+00
H    3.5249173108149869E+00    3.8402074967185924E+00    9.9510006399881927E+00
H    2.4297337650180348E+00    4.9330989925182385E+00    9.5245628999156899E+00
H    2.1731627523386683E+00    4.5583640086501198E+00    6.3013579985285304E+00
H    2.8563500932205201E+00    3.8576048156072282E+00    7.5841394106050108E+00
H    1.1402120515038723E+00    7.1967347480491197E+00    1.1594244541671936E+00
H    2.2451038169285145E+00    6.0044688738697181E+00    1.0028737587346419E+00
H    2.8159635337968165E+00    8.9701748198956022E+00    2.2995199891612272E+00
H    1.3289544665005959E+00    8.9939926467865057E+00    2.8983257079366358E+00
H    4.4550218369063588E+00    1.1540339425002625E+01    9.1644203320306161E+00
H    3.0505860859888192E+00    1.2474023132575031E+01    9.2862357274646392E+00
H    5.8591510063972745E+00    3.4580809397742995E+00    3.6616773633321205E+00
H    5.8328342793227295E+00    3.4003555439727453E+00    1.9823495664219466E+00
H    9.5573469725833138E-01    1.6451477306418090E+00    4.8407733836398084E+00
H    2.2282991647282127E+00    2.4813299829957836E+00    5.6872650229979556E+00
H    8.4431290012338547E+00    1.6050270153575403E+00    7.5442513472512038E+00
H    8.0660702671689748E+00    2.0137128293781519E+00    6.0338191030254773E+00
H    5.2179579256196682E+00    2.8944435585725272E+00    1.1676379626025263E+01
H    6.6808372388720239E+00    3.4137338960737993E+00    1.1974227321954672E+01
H    1.0787628803153435E+01    6.5181395670692810E+00    2.0987991922679181E+00
H    1.1679773573106552E+01    5.3602522151485541E+00    1.3423877172542331E+00
H    3.4353203684223366E+00    1.5422281194347609E+00    1.0899348788967533E+01
H    4.8360131199352896E+00    1.4266306188253715E+00    1.0089887937305102E+01
H    4.3860802581992324E+00    3.3639520802593492E+00    5.6883523933683060E+00
H    5.6851424648195978E+00    4.3694414775809252E+00    5.5473743673677909E+00
H    6.2905172776256650E+00    1.1824099733730110E+01    1.7188529435635151E+00
H    5.6254822935002400E+00    1.2118652077605761E+01    3.2827489265188609E-01
H    3.5448338646128339E+00    1.3905272139772720E+00    2.1815170599137952E+00
H    2.6082617908480294E+00    2.2011793681981469E+00    3.2448585926867599E+00
H    7.1214310944102648E+00    5.8746986475819991E+00    7.5240902705100803E+00
H    8.6555160452235782E+00    5.7349833608858551E+00    7.0296645633542694E+00
H    6.0004465275558516E+00    5.6511979030126858E+00    1.1673025686982513E+01
H    6.2576534574136149E+00    6.3249880564340639E+00    1.3168261180251923E+01
H    1.1110393485514292E+01    1.2636559250997742E+01    1.1695509562621451E+01
H    1.0264574453191630E+01    1.2297166054267167E+01    1.3044673119309618E+01
H    9.9063257583815627E+00    4.0523254539275175E+00    2.7328096710859442E+00
H    8.5320976562302917E+00    3.4662435851542139E+00    2.9418258347984678E+00
H    1.4549325922490270E+00    6.6684406032620327E+00    7.1063381287395320E+00
H    1.0013233336748490E+00    6.1758231958569727E+00    5.6553319488917593E+00
H    7.9834584102540163E+00    3.6965662970380988E+00    9.9295362401102629E+00
H    8.0702893407845711E+00    2.3148727995358511E+00    1.0750118168090737E+01
H    1.1741851247339767E+01    1.0457041172523112E+01    1.2099135806997149E+01
H    1.2145140467210268E+01    8.9346530857768620E+00    1.2412210742868044E+01
H    3.3373535314762734E+00    7.6121200308668922E+00    7.8531045761946325E+00
H    3.8438071109290366E+00    6.2417161568788355E+00    8.6114175129767325E+00
H    3.1132077807563872E+00    7.6196920981193603E+00    1.1070308623812625E+01
H    4.4752997918957984E+00    7.6309327249741719E+00    1.2076616644962577E+01
H    1.1595109347934644E+01    4.9846383472230391E+00    7.0588447442757971E+00
H    1.0300198428133564E+01    4.1359917521733989E+00    7.3179795841099704E+00
H    1.0066803629045197E+01    8.9449101926811601E+00    1.8648409458409472E+00
H    9.5721275817938682E+00    8.2654871620134323E+00    4.9820470823710011E-01
H    1.3188214514451793E+00    6.6901027276335929E+00    9.6503048603095074E+00
H    1.4021624817051281E+00    6.4512365186991936E+00    1.1227722789150432E+01
H    4.1225373888743286E+00    1.3301382656583300E+00    5.2661059713484217E+00
H    4.6863100279934420E+00    6.4323888154661601E-01    6.6181558656206976E+00
H    9.4703533710548466E+00    1.2334177792054639E+01    8.7409520154256715E+00
H    8.8486737260945336E+00    1.1353175343932399E+01    7.5414016813755769E+00
H    1.7346635260655270E+00    1.0023247752447778E+01    1.4531246291257222E-01
H    3.3374323737187690E+00    9.8445600332853811E+00   -2.3573946364357845E-01
H    7.0505799823438746E+00    1.1506005604268365E+01    4.1255571139550309E+00
H    6.4716019298349599E+00    9.9354966266920073E+00    3.7910911532690799E+00
H    1.3268589592325417E+00    5.8377393428332758E-01    1.1128929736802856E+01
H    2.5223619020813444E+00   -5.4513600116118999E-01    1.1460522258341536E+01
H    8.7695024945578162E+00    1.8730405160158470E+00    9.9029984538912308E-01
H    8.0908940305211274E+00    3.3984351974880139E-01    9.9164118001877655E-01
H    1.1203607709288002E+00    8.3716512006969843E+00    8.1792323344821423E+00
H    2.0883187077736887E+00    8.9941496096211662E+00    7.0138877035355582E+00
H    8.9092455661130856E+00    7.7938840102228237E+00    9.2222118549550487E+00
H    9.0650442925902883E+00    8.4492400512079548E+00    1.0614283870985163E+01
H    1.0125293357167948E+01    7.6972294325340798E+00    6.4507709233792880E+00
H    1.0499855152552362E+01    9.1992705817157887E+00    6.1555311709661051E+00
H    3.4971231604207085E+00    3.9586904012080413E+00    2.1122844778209733E+00
H    4.0584146620695041E+00    4.5845739999374100E+00    7.4299547661342868E-01
H    7.3547300979687993E+00    9.3907717765801699E+00    1.2034662471108273E+01
H    7.3341917810686112E+00    7.7711469163760514E+00    1.2054219542762159E+01
H    7.8271815569074272E+00    1.0161811172290243E+01    5.7814619639483418E+00
H    7.7120113817919362E+00    9.5092512996332381E+00    7.2843726304683063E+00
H    5.2899463871979462E+00    6.4889429596107258E+00    6.3929757321042704E+00
H    4.8678252868866441E+00    6.3175211180912232E+00    4.8313586361392344E+00
H    1.1521862541304293E+01    2.1923283626798020E+00    4.2496614328204334E+00
H    1.1222791846956227E+01    7.8414795598406428E-01    4.7829538343866238E+00
H    8.8119942350282408E+00    9.6778779613687256E+00    3.9666686831595559E+00
H    9.9342844970836204E+00    1.0814156988795094E+01    3.7816372858581291E+00
H    3.1082289528959901E+00    1.0546326407175691E+01    5.2868803913880580E+00
H    4.3132584907098259E+00    1.1455620653059057E+01    5.0610780320701876E+00
H    4.2220406784305692E-01    7.3045102192451843E+00    3.8013135649979430E+00
H    2.9772343931098755E-01    5.7724401932054175E+00    3.4526995513575853E+00
H    7.5860591209686463E+00    6.5678847601568311E+00    3.2915836809370180E+00
H    6.6758385347307510E+00    5.3831754309168209E+00    2.5200133494031141E+00
H    3.8532534172214841E+00    6.3060046348721945E+00    2.8123783749712801E+00
H    2.7953246440734398E+00    6.5485847389793319E+00    3.9537741358616945E+00
H    5.5553176437612475E+00    8.0120599991603036E+00    8.6583941104801294E+00
H    6.9993930795528261E+00    7.4780238970682831E+00    8.4104344163901317E+00
H    9.5571588990612550E+00    7.3280446145804312E-01    3.0174818797259606E+00
H    8.9237164310799546E+00    1.3437510585582679E-01    4.4076447871985316E+00
H    3.8482457315566694E+00    1.1174438455175050E+01    1.3441470566658131E+00
H    3.9626056228505808E+00    1.0964278466900733E+01    3.0102551897980350E+00
H    5.9449661422401539E+00    7.8891857853121907E+00    2.7995741535943228E+00
H    4.7652120121377166E+00    8.7229381074905863E+00    3.5906717261718146E+00
H    1.0905815782846974E+01    5.5302201800690476E+00    4.9342869455831817E+00
H    9.5033245323343465E+00    4.6732708376717609E+00    4.7171193166484580E+00
H    1.1491942104118856E+01    9.0018887406741808E+00    3.3983649908312690E+00
H    1.1959903629027536E+01    8.7851547644323436E+00    4.9401026898618987E+00
H    2.9404439844283754E+00    1.1333326721634794E+01    7.4881123877731861E+00
H    1.3993518978812192E+00    1.1120275827041255E+01    6.8063456551250621E+00
H    7.2181951384445631E+00    1.2809608485130261E-01    9.7032371258699364E+00
H    7.1648660378632929E+00    1.0772078744944769E-01    1.1367500988398460E+01
H    4.8113412051032407E+00    9.3237474535623530E+00    1.0837702423612305E+01
H    6.0816481698040867E+00    9.8060697913111721E+00    1.0186927365162429E+01
H    1.0565212262634374E+01    6.7306908548516624E+00    1.0314443980528981E+01
H    1.1239043366239988E+01    5.5938377372059529E+00    9.3143651163959209E+00
H    1.2188456954755010E+01    8.9927460849028158E+00    1.0127821223539890E+01
H    1.1415764242451470E+01    8.6329965781120794E+00    8.6365688433601342E+00
     &END COORD
     &VELOCITY
           2.4353373553207355E-04   -1.2006097603027345E-04    8.6380096430615713E-05
           5.1311970173724462E-05   -1.2708266316280503E-06   -1.4048482605142852E-05
          -1.3298767757069402E-04   -8.3910828194416721E-05   -1.7227772178560590E-04
           3.2311111387381625E-04   -2.8974228281636696E-04    2.2815855771292915E-04
           3.6807112800958983E-04   -1.6540691874971988E-04    8.2168021729944900E-05
           8.6843810076020446E-05   -1.6733145784226380E-04    2.3233906169801364E-04
          -1.9144732816545650E-04    3.6490306371777047E-05    1.7692428814468299E-04
          -2.7339212137163736E-04   -2.0181330262176082E-06   -2.5185283188833524E-04
          -2.9114797155950630E-04    1.4202524657287008E-04   -9.4207613522229996E-05
           4.9604684375374813E-05    1.9764986075692525E-04   -3.9675655905662088E-05
          -1.0338266295830331E-04    2.5533554886996931E-04   -1.7753567722353432E-04
           1.2393271803554367E-04   -5.1522817979347748E-05    2.4869105054530492E-04
           3.7171385614601557E-05    1.3912087635473198E-04   -2.6001104942159761E-04
          -9.0584380440429335E-05   -5.4256969627895706E-05    1.3571849163618253E-04
          -1.3532069037244219E-05    2.9312535024611622E-04   -1.1035216193768512E-04
           3.4365663856593111E-04    1.2592891248355151E-04    1.2984947779089414E-04
           3.1061310689061209E-05   -2.1491061234769473E-04    1.3642911352379573E-04
          -1.1197980599541565E-04    8.8708519150719259E-05    8.1551359022016874E-05
           7.2553977143328377E-05   -7.4882564051256811E-05   -3.7593240436612193E-05
          -3.9311008775112198E-05    7.7794970765085160E-05   -4.9503853880713481E-05
           1.3050850737432912E-04    3.2997372855933922E-05    2.3384938881804011E-04
          -2.3506710107800980E-04   -1.3038351984248674E-04   -7.8872779766570269E-05
           2.2656471396890015E-04    3.8984618365654361E-06   -1.0674489558089016E-04
          -4.8910812396178347E-04   -8.8250996367210258E-05    4.1168871698542107E-05
          -2.3516505105393350E-04    3.0141522873535439E-05   -4.3307021518920730E-05
           2.3874077440667776E-04    1.6479626533039631E-04   -6.5961174323927209E-06
           2.1570400430632873E-06   -3.6687604474831571E-04    1.9056449024870246E-05
           1.5263290746710714E-04   -4.5423683352057085E-05   -4.7828240988532939E-05
          -2.4361660475013210E-04   -1.5799538490184691E-04    1.4701044898682687E-04
          -4.6332302270372926E-05    6.6958418747924239E-05   -1.4093723621494056E-04
           7.0402526356375025E-05    1.4787938509162939E-04    2.3294646135974570E-04
          -1.0541845847180215E-04    9.0959878379668610E-05    1.4239486316548750E-04
           3.9447066266649276E-04    6.7697585290484074E-05    1.1078543440657310E-04
          -7.7642050359180625E-05   -1.2536442820110501E-04   -1.9896428319020329E-04
           4.0834731831198987E-04    1.4767279244606000E-04    2.0697580192282356E-05
          -2.3059415804208146E-04   -1.2069261926413874E-04    1.1528847271873981E-04
          -2.2453224222213718E-04    3.2508315210975431E-04   -1.1011175869342817E-04
          -2.5223464561605983E-05    3.9102949517029614E-04    1.6353834116999044E-04
           2.2717843320730861E-05   -6.2765751646978758E-06    4.4671040036314927E-05
          -2.2749659829906103E-04   -6.9576305571330467E-06    6.3788388335359088E-05
          -7.5841302711502967E-05    8.7087799007972905E-05   -2.6939094015250808E-04
          -1.5166914074139383E-04   -1.6482446184829528E-04   -8.8619423409250681E-05
           8.3255811689832713E-06   -5.3065384638479786E-05   -7.5044278367511003E-05
           6.6403553281818060E-05    1.1865592147011455E-04   -1.6876922794482454E-04
          -3.6854176965076858E-04   -4.4916679520312582E-04   -7.2212204738880274E-05
          -1.2514834925836605E-04   -2.1658705549567229E-04    1.4279407565106100E-05
           1.5301292384503184E-04    7.8212466736858651E-05   -2.6042789656043226E-04
           1.1597437781321311E-04    1.3153166326804381E-04    1.9714489340946342E-05
          -2.7586288476725909E-05    4.9135802997740800E-05   -8.2847135184980765E-05
           1.7533037837570424E-04   -1.0200057779263830E-04   -1.5955910875254281E-05
           9.1305293479651406E-06   -1.7063363096804447E-04   -1.2704533408444628E-04
           2.0532414020218805E-04   -1.8523108330512810E-04    1.5576953259775997E-04
          -9.5082342047919023E-05    3.8898283928807004E-04    6.8143354613189251E-05
          -3.3468517678146253E-05    1.1413973595069749E-04    4.8372670606197109E-05
          -3.2167308794106054E-04   -6.7373694363589650E-05   -3.3440505798180856E-04
          -1.0565699375218020E-04   -1.8612919960271122E-04   -4.1185047202743958E-05
           3.0227443463505191E-04   -1.9476820730295467E-08   -4.0898192675782827E-05
           3.4132859751826339E-04   -7.5666618756485126E-05    3.1369871723347959E-04
           4.8774504445710837E-06    9.5432986768273243E-05    4.0463993790382752E-05
          -7.3525642128636340E-05   -1.1023344657315525E-04   -1.6990266179285119E-04
          -9.5305467327398076E-05    1.5924492797970744E-04    1.0050784054772564E-04
           2.9577992716715748E-04   -2.0302338271552074E-04   -3.8000268539062024E-06
           3.3426751510686453E-05    2.9960856867863767E-05    2.2957098677702373E-05
           2.1247046210758191E-04   -1.8773508816739877E-04   -7.1323934928084164E-05
          -4.5158839411755202E-04   -3.6143060062021907E-05   -6.1976176336441034E-04
           9.6706711086531633E-04   -4.1494673934349866E-04   -1.4270244722824654E-03
           7.4657709747236894E-04    7.4979183348132246E-04   -2.9716006810567177E-05
           1.1944835030181940E-03   -2.4887952160389845E-04   -4.6965328162131269E-04
           3.3415678182028928E-04   -4.4057529890930254E-04   -4.5347033659628338E-04
           1.1012796129733129E-03    2.9083917969007628E-04   -1.2194190255384726E-03
           2.2415342336001663E-04    1.5937251549916606E-03   -3.7781211912358409E-04
           1.0073465758822799E-03   -6.8157982681515527E-04    2.6183752026487324E-04
          -6.9769183993091910E-05    2.4841597222080724E-05   -1.3349984326336520E-04
          -6.5395783719513943E-04   -1.1729838999059708E-04    1.7209949852715334E-04
          -6.3912725037495966E-04   -9.4833908175124095E-04   -2.5753189735642015E-04
          -3.9187509725529407E-04   -2.4417797175892348E-04   -5.0822500047310979E-04
           2.8904185295612573E-04   -2.0455475310505876E-03   -7.4488003285623418E-04
           3.8533435967825423E-04   -1.5649598639308042E-03   -8.1999331580922586E-04
           6.6163782213729397E-04   -2.0530137997431134E-04   -4.7022778525952877E-04
          -4.8571775282254607E-05   -1.4283455067718323E-03    8.4970777260041301E-04
          -5.1040502077201282E-04    9.0124041079519461E-04   -4.3717828667401258E-04
           2.7962496772315618E-04    1.1112791909214965E-04   -5.6980553867351286E-04
          -1.5080494508840532E-03    7.3672779722884409E-04   -5.7541528790279586E-06
           2.4475429618218470E-04    9.7437756640773138E-04   -4.8339679944127157E-04
          -8.5981680049916759E-05    5.9512037257139830E-04   -4.8949501768919920E-05
          -6.8266467569350997E-04   -5.5567223330017573E-04    7.1350489596587626E-04
           4.8033714572448148E-05    6.5011279428125947E-04   -7.7943973948009938E-04
           8.0491910991021238E-05   -7.8343749743435716E-04    7.2435736500593955E-04
           2.5839724578720249E-04    7.5578985120654810E-05   -5.8507007750146416E-04
           3.2468632056570194E-04   -2.7324024717251163E-04    2.5249479699369844E-04
          -1.0539062839197031E-03    5.0616494372951069E-04    7.1049452488214804E-04
           8.0541579376244908E-04   -1.4428395471483100E-04   -9.1111624629546884E-04
          -9.3901405451309023E-05   -1.7440336410223272E-04   -6.6695306716511762E-04
          -5.9667439634221724E-04    2.1020879938630352E-03   -1.6524975854254514E-04
          -5.9413689338217151E-04   -1.8314218676217950E-04   -3.0878549932768261E-04
          -1.1299139629461925E-04   -1.9706794262527616E-04    5.4164798323075758E-04
           3.7379192868880170E-04   -2.2187500991586000E-04   -3.6215118737548124E-04
          -5.2111287107606328E-04    8.9091209794867228E-04   -5.6207250902632038E-04
           6.7919292620174324E-04    1.3343181444171415E-04   -5.4958333087601710E-04
          -5.0955912387725744E-05   -7.8811310892663194E-04    5.3306738453402368E-04
          -8.4615276309818791E-05   -4.3969810879034119E-04   -1.5061331384582017E-03
           1.9621493939931116E-04    7.0658921105513873E-04    7.9834173951993405E-04
          -3.1086266725238742E-04    7.4710976672866681E-04    4.9983161009184679E-04
          -7.7088036729333544E-04    8.7923124010184386E-04    4.4906439905150576E-04
           4.7843808735947689E-04    2.0885304130251493E-04    9.9081078447467962E-04
           2.7383478085216172E-04   -1.2076470228846395E-05    2.0312636572756720E-03
           2.2238602224889214E-04    4.5732113716959335E-04    2.0297495634565106E-03
          -1.3983314816757870E-04    6.4110517558110911E-04    2.3541721875426760E-04
           1.0634351962548543E-03   -8.1406755454165730E-04    2.5592615916586453E-04
           5.5764666830045466E-04   -2.4944020390790247E-04    1.0095491374791598E-03
           8.2355304828865702E-04    4.6265598276232542E-04    1.0873683440461677E-03
           1.0554542732298139E-03    1.4711843503957083E-03   -1.9257994648856991E-04
          -5.9301436625911700E-04    1.4338243180434865E-03   -1.0518598720753438E-03
           1.7009542631491500E-04   -2.7229621443853301E-04   -1.8275874440794510E-04
          -3.9794180037787239E-04    1.1377334676146917E-03    1.5111872071657393E-04
          -2.1010779032767997E-04    2.5908254733667891E-04    1.2965840740069661E-03
           5.7014687408669202E-04    4.3663748728707915E-04   -1.4622705921405962E-04
           2.7451658007003350E-04   -1.1055104189081829E-04   -2.7011911349931984E-04
          -1.5488517944565296E-03   -4.8268639179481888E-04    1.0661735520569524E-03
           1.1223093812302845E-04    6.1336181173674194E-04   -2.4337739023010753E-04
          -8.4642821006014352E-04    2.7314900744196207E-04    4.4966165019254636E-04
          -9.0281864251555389E-04    4.6471968388950253E-04   -2.6632644261726917E-04
          -1.1909602595954727E-03    3.2546725818511139E-05   -5.5177771632185208E-05
           2.6878284870985686E-04   -1.1019214432776863E-03    6.7804196600518697E-04
           3.1926309374055229E-04    1.0177813136522662E-03   -3.0847823994005713E-04
          -4.2284471688538408E-04    4.3959034008374227E-04   -8.2960000471720091E-04
           4.5763012005625708E-04   -7.2873611066506870E-04   -1.9810871943671223E-04
          -2.5435809605163788E-04   -2.9857092396297379E-04    4.0812967125377004E-04
          -1.7369381688164058E-04    6.5701533342959334E-04    1.2674523033033291E-03
           2.5615963342305625E-04   -1.0911306174479966E-06    1.1679000473631244E-03
          -1.6308110286977420E-05    1.3149337653149424E-03    1.0407917750258659E-03
           8.9763869683443605E-04   -3.3652501417265714E-04    5.8254652442046829E-04
           1.0486726918465870E-03    1.4387708629241263E-04   -1.3227328925388656E-03
          -7.1280006660011104E-04    3.7576614697663234E-04   -7.8229807963847340E-04
          -4.9597517647643215E-05    2.0943390397282711E-05   -3.3577883365074166E-04