 # Version information for this restart file 
 # current date 2023-07-21 10:08:13.708
 # current working dir /mnt/lustre/indy2lfs/work/tc047/tc047/mrnuff-cirrus/cp2k
 # Program compiled at                              Thu Jun 30 12:29:55 BST 2022
 # Program compiled on                                             cirrus-login3
 # Program compiled for                                             Cirrus-intel
 # Source code revision number                                       git:e635599
 &GLOBAL
   PRINT_LEVEL  LOW
   PROJECT_NAME H2O-64
   RUN_TYPE  MD
 &END GLOBAL
 &MOTION
   &MD
     ENSEMBLE  NVE
     STEPS  10
     TIMESTEP     4.9999999999999994E-01
     STEP_START_VAL  10
     TIME_START_VAL     4.9999999999999982E+00
     ECONS_START_VAL    -1.1007588181102403E+03
     TEMPERATURE     3.0000000000000000E+02
     &AVERAGES  T
       &RESTART_AVERAGES
         ITIMES_START  1
         AVECPU     6.1374274951871488E+00
         AVEHUGONIOT     0.0000000000000000E+00
         AVETEMP_BARO     0.0000000000000000E+00
         AVEPOT    -1.1010668160173032E+03
         AVEKIN     3.0070034549318636E-01
         AVETEMP     3.3142598855987615E+02
         AVEKIN_QM     0.0000000000000000E+00
         AVETEMP_QM     0.0000000000000000E+00
         AVEVOL     1.2909542132085598E+04
         AVECELL_A     2.3458682268415796E+01
         AVECELL_B     2.3458682268415796E+01
         AVECELL_C     2.3458682268415796E+01
         AVEALPHA     9.0000000000000000E+01
         AVEBETA     9.0000000000000000E+01
         AVEGAMMA     9.0000000000000000E+01
         AVE_ECONS    -1.0896372507070247E+01
         AVE_PRESS     0.0000000000000000E+00
         AVE_PXX     0.0000000000000000E+00
       &END RESTART_AVERAGES
     &END AVERAGES
   &END MD
 &END MOTION
 &FORCE_EVAL
   METHOD  QS
   &DFT
     BASIS_SET_FILE_NAME GTH_BASIS_SETS
     POTENTIAL_FILE_NAME POTENTIAL
     &SCF
       SCF_GUESS  ATOMIC
       &OT  T
         MINIMIZER  DIIS
       &END OT
       &PRINT
         &RESTART  OFF
         &END RESTART
       &END PRINT
     &END SCF
     &QS
       EPS_DEFAULT     9.9999999999999998E-13
       EXTRAPOLATION  PS
       EXTRAPOLATION_ORDER  3
     &END QS
     &MGRID
       CUTOFF     2.8000000000000000E+02
       REL_CUTOFF     3.0000000000000000E+01
     &END MGRID
     &XC
       DENSITY_CUTOFF     1.0000000000000000E-10
       GRADIENT_CUTOFF     1.0000000000000000E-10
       TAU_CUTOFF     1.0000000000000000E-10
       &XC_FUNCTIONAL  NO_SHORTCUT
         &PADE  T
         &END PADE
       &END XC_FUNCTIONAL
     &END XC
   &END DFT
   &SUBSYS
     &CELL
       A     1.2413800000000002E+01    0.0000000000000000E+00    0.0000000000000000E+00
       B     0.0000000000000000E+00    1.2413800000000002E+01    0.0000000000000000E+00
       C     0.0000000000000000E+00    0.0000000000000000E+00    1.2413800000000002E+01
       MULTIPLE_UNIT_CELL  1 1 1
     &END CELL
     &COORD
O    1.2265692089483915E+01    1.3554390129941678E+00    1.0875425741210442E+01
O    6.4523125712781972E+00    3.7059030017228096E+00    8.6472703373293012E+00
O    7.7679434805465325E-02    2.1684363409615832E+00    8.2608499727948406E+00
O    1.2086328917682344E+01    2.6383236471456222E+00    2.1708319631148369E+00
O    1.2290563434792466E+01    4.1705987030844085E+00    1.2102197401500675E+01
O    7.2035546534509027E+00    9.4146440982939328E-01    4.7596753308530628E+00
O    8.3332259924709522E+00    7.2077559238208622E+00    4.6827252174468228E+00
O    1.2331820354972864E+01    1.1521085584601170E+01    8.0815267568454701E+00
O    3.2742305248728845E+00    4.4591006237004240E+00    9.1745323461747628E+00
O    2.8601657947011159E+00    3.7871321994318250E+00    6.5410904120533688E+00
O    1.3797135980521906E+00    6.3917883108529239E+00    5.6509499049343137E-01
O    1.8717778176468829E+00    8.6859327223319482E+00    2.0908475002935303E+00
O    3.7724126920716423E+00    1.2107291686118611E+01    8.6205990989001808E+00
O    6.4253612010425423E+00    3.6667844669334708E+00    2.7875787966085941E+00
O    1.9996801569167590E+00    1.8525818618605301E+00    4.8671305057775527E+00
O    8.2870264289442588E+00    2.4221945186202278E+00    6.9417301194040109E+00
O    5.7524965525743488E+00    3.3354063225407486E+00    1.2486444073906807E+01
O    1.1313041873263911E+01    5.6568394091370520E+00    2.2481538681309510E+00
O    4.2889086332743869E+00    2.1146774663677572E+00    1.0586400462686644E+01
O    5.3988008779579060E+00    3.3584215761665908E+00    5.4859980676066726E+00
O    6.5093803283316536E+00    1.1870555907452767E+01    7.1448610258287482E-01
O    3.2525927590517614E+00    2.3434818290720978E+00    2.4132514479859086E+00
O    8.0086796499283714E+00    6.3565335203086279E+00    7.4977752039613543E+00
O    5.9288585788258121E+00    6.5082801666043704E+00    1.2195796701642463E+01
O    1.0610385294795581E+01    1.1861264429738620E+01    1.2200574174939844E+01
O    9.3403690756569304E+00    3.6890996107164082E+00    3.5273423653475455E+00
O    1.1111278086578040E+00    5.7890355206451014E+00    6.6473009501981526E+00
O    8.0194995343334341E+00    3.3269739508473295E+00    1.0869758841489800E+01
O    1.2376084676796188E+01    9.6748049821029269E+00    1.1772442429127418E+01
O    4.2098962719504245E+00    7.0914037241392176E+00    8.1403049780539369E+00
O    3.7839656891276365E+00    8.2290488153629813E+00    1.1585038748792520E+01
O    1.1076296436002783E+01    4.5429033328727044E+00    7.8327522122957172E+00
O    1.0435269965490487E+01    8.4217711221836531E+00    1.0328413587523269E+00
O    1.9828015281271534E+00    6.4005825276162591E+00    1.0353823655978468E+01
O    4.7041682767468798E+00    5.6227133611203983E-01    5.6097237226912320E+00
O    8.7178718108894024E+00    1.2242115811187372E+01    8.0976567639231565E+00
O    2.6327341025095308E+00    1.0520521873272893E+01    8.2905623926737754E-02
O    7.2399931187465283E+00    1.0511642196931643E+01    4.2432664330031420E+00
O    2.2807064781619864E+00    2.7612056427344156E-01    1.0807250569989325E+01
O    8.8632061138830363E+00    9.4642072500210273E-01    1.3400856795970015E+00
O    1.9443088048743977E+00    8.0893935868695372E+00    7.5355059867712235E+00
O    9.6598248299586853E+00    8.0355046451627317E+00    9.8565400345209433E+00
O    1.0903669851584345E+01    8.3307153998976027E+00    6.4773146916028050E+00
O    3.5124567442237802E+00    4.8693650210822419E+00    1.5451764009707873E+00
O    7.9775830453592480E+00    8.6026723333305046E+00    1.2050849513770208E+01
O    8.3694035479504585E+00    1.0019371052442997E+01    6.6836141760228891E+00
O    5.6546743218576454E+00    6.0810664230944402E+00    5.5283846573828184E+00
O    1.1742547847645346E+01    1.6241840639034375E+00    5.0859575162072952E+00
O    9.7585719615142441E+00    9.8110347715518973E+00    3.5364867774941446E+00
O    3.9627876574400571E+00    1.0548914651573707E+01    4.6848634346389728E+00
O    9.0110847254970250E-01    6.3699180308686429E+00    4.0614677068441747E+00
O    6.8825857356122357E+00    6.4084220847945259E+00    2.5046902581441040E+00
O    3.8180799995398420E+00    6.6391276583280847E+00    3.7786506828597881E+00
O    6.5639457974901791E+00    8.3081696931559446E+00    8.8142644496196798E+00
O    9.7792965800925948E+00    1.3440562766331590E-01    3.8518038249084747E+00
O    4.1040770115658338E+00    1.1645978558721318E+01    2.2167390496173138E+00
O    5.3225394392113161E+00    8.7370879819812028E+00    2.7520568939068717E+00
O    1.0008064086737129E+01    5.3735087324374078E+00    5.3757728940149372E+00
O    1.2260297782908717E+01    8.6464340629359064E+00    3.9709777917871940E+00
O    2.3431345497116705E+00    1.0747243885368750E+01    6.8128217267251419E+00
O    7.0016612916653989E+00    6.6240597665990641E-01    1.0534341561687871E+01
O    5.1725047982212811E+00    1.0218495319125118E+01    1.0357205957141359E+01
O    1.1186316801594460E+01    5.8851524495734679E+00    1.0299193203865903E+01
O    1.2277001782589682E+01    8.9569716794259850E+00    9.0707884188585943E+00
H    1.2357840653884413E+01    2.3335995753224457E+00    1.1187202568866841E+01
H    1.1946181003855656E+01    1.5338243304141552E+00    9.8820686313879964E+00
H    5.5871540556998136E+00    3.4492983737423821E+00    9.0442905792540067E+00
H    6.8930493554899606E+00    3.0239782285796468E+00    7.9852283560214783E+00
H   -1.4374297116865151E-01    1.5098214846068847E+00    7.5263531243316439E+00
H   -3.8865416711532724E-01    3.0530974755005111E+00    7.9298823362645985E+00
H    1.2176354233152953E+01    2.9746344065099590E+00    1.1924463434420356E+00
H    1.2991627169715409E+01    2.9143170210548370E+00    2.5155346727350105E+00
H    1.1517585159651826E+01    4.3255122446515006E+00    1.1434691026735857E+01
H    1.2784953658522339E+01    5.0635466714148114E+00    1.2040055000820059E+01
H    6.9671401310522141E+00    1.7387343976974368E+00    4.1849967664903192E+00
H    6.2296009063341486E+00    6.8946782722639433E-01    5.1579113656949263E+00
H    7.7273594948734230E+00    7.2216808380995907E+00    5.4888761780282396E+00
H    9.1691701765468334E+00    6.6296086344992267E+00    4.9460727574879844E+00
H    1.2846883768257221E+01    1.1781070688349150E+01    8.9005192602394505E+00
H    1.1983330930254059E+01    1.0563456761596123E+01    8.3168613221530627E+00
H    3.5249173108187306E+00    3.8402074967243469E+00    9.9510006399901769E+00
H    2.4297337650181512E+00    4.9330989925199660E+00    9.5245628999133380E+00
H    2.1731627523311228E+00    4.5583640086450217E+00    6.3013579985289612E+00
H    2.8563500932210251E+00    3.8576048156112419E+00    7.5841394106043802E+00
H    1.1402120515026433E+00    7.1967347480529700E+00    1.1594244541637786E+00
H    2.2451038169253432E+00    6.0044688738684133E+00    1.0028737587404304E+00
H    2.8159635337991245E+00    8.9701748198808744E+00    2.2995199891601907E+00
H    1.3289544665061084E+00    8.9939926467782882E+00    2.8983257079434468E+00
H    4.4550218369061190E+00    1.1540339425003578E+01    9.1644203320318240E+00
H    3.0505860859904166E+00    1.2474023132571066E+01    9.2862357274699914E+00
H    5.8591510063952956E+00    3.4580809397757912E+00    3.6616773633306434E+00
H    5.8328342793245715E+00    3.4003555439704547E+00    1.9823495664216091E+00
H    9.5573469725958582E-01    1.6451477306436479E+00    4.8407733836341524E+00
H    2.2282991647302661E+00    2.4813299829888416E+00    5.6872650230018102E+00
H    8.4431290012359845E+00    1.6050270153562343E+00    7.5442513472486201E+00
H    8.0660702671732665E+00    2.0137128293829809E+00    6.0338191030231965E+00
H    5.2179579256213930E+00    2.8944435585797441E+00    1.1676379626020749E+01
H    6.6808372388708488E+00    3.4137338960720931E+00    1.1974227321954817E+01
H    1.0787628803146573E+01    6.5181395670634812E+00    2.0987991922632161E+00
H    1.1679773573101363E+01    5.3602522151475149E+00    1.3423877172512453E+00
H    3.4353203684196734E+00    1.5422281194349163E+00    1.0899348788956916E+01
H    4.8360131199371690E+00    1.4266306188287474E+00    1.0089887937303732E+01
H    4.3860802582003986E+00    3.3639520802575062E+00    5.6883523933770928E+00
H    5.6851424648159830E+00    4.3694414775810220E+00    5.5473743673651743E+00
H    6.2905172776230502E+00    1.1824099733747328E+01    1.7188529435634212E+00
H    5.6254822935022180E+00    1.2118652077614261E+01    3.2827489265238047E-01
H    3.5448338646079476E+00    1.3905272139791611E+00    2.1815170599104441E+00
H    2.6082617908448689E+00    2.2011793681998970E+00    3.2448585926832307E+00
H    7.1214310944126922E+00    5.8746986475792964E+00    7.5240902705248986E+00
H    8.6555160452208337E+00    5.7349833608753968E+00    7.0296645633629193E+00
H    6.0004465275649395E+00    5.6511979030143431E+00    1.1673025686980035E+01
H    6.2576534574142615E+00    6.3249880564331402E+00    1.3168261180251870E+01
H    1.1110393485509089E+01    1.2636559250997793E+01    1.1695509562619653E+01
H    1.0264574453193200E+01    1.2297166054266926E+01    1.3044673119309916E+01
H    9.9063257583770010E+00    4.0523254539289200E+00    2.7328096710821406E+00
H    8.5320976562310182E+00    3.4662435851513926E+00    2.9418258347989230E+00
H    1.4549325922375707E+00    6.6684406032653989E+00    7.1063381287422684E+00
H    1.0013233336711491E+00    6.1758231958591132E+00    5.6553319488926386E+00
H    7.9834584102603658E+00    3.6965662970357700E+00    9.9295362401111511E+00
H    8.0702893407903264E+00    2.3148727995364551E+00    1.0750118168091040E+01
H    1.1741851247338117E+01    1.0457041172522553E+01    1.2099135806994616E+01
H    1.2145140467199470E+01    8.9346530857760325E+00    1.2412210742862968E+01
H    3.3373535314762988E+00    7.6121200308664756E+00    7.8531045761946707E+00
H    3.8438071109319423E+00    6.2417161568831547E+00    8.6114175129816051E+00
H    3.1132077807633478E+00    7.6196920981179126E+00    1.1070308623801624E+01
H    4.4752997918978030E+00    7.6309327249731584E+00    1.2076616644959348E+01
H    1.1595109347938822E+01    4.9846383472197315E+00    7.0588447442734079E+00
H    1.0300198428129514E+01    4.1359917521739415E+00    7.3179795841154398E+00
H    1.0066803629045065E+01    8.9449101926878267E+00    1.8648409458419792E+00
H    9.5721275817981955E+00    8.2654871620117696E+00    4.9820470823337376E-01
H    1.3188214514394128E+00    6.6901027276299105E+00    9.6503048603160231E+00
H    1.4021624816973559E+00    6.4512365186884351E+00    1.1227722789147760E+01
H    4.1225373888740222E+00    1.3301382656579319E+00    5.2661059713498108E+00
H    4.6863100279914658E+00    6.4323888154026265E-01    6.6181558656211168E+00
H    9.4703533710557490E+00    1.2334177792058957E+01    8.7409520154269345E+00
H    8.8486737260982942E+00    1.1353175343935561E+01    7.5414016813722293E+00
H    1.7346635260617487E+00    1.0023247752455774E+01    1.4531246290855904E-01
H    3.3374323737185900E+00    9.8445600332824590E+00   -2.3573946363551460E-01
H    7.0505799823410316E+00    1.1506005604268159E+01    4.1255571139599789E+00
H    6.4716019298302339E+00    9.9354966266940110E+00    3.7910911532773461E+00
H    1.3268589592359368E+00    5.8377393429923596E-01    1.1128929736799543E+01
H    2.5223619020800387E+00   -5.4513600115537919E-01    1.1460522258349441E+01
H    8.7695024945572957E+00    1.8730405160140307E+00    9.9029984538953653E-01
H    8.0908940305259769E+00    3.3984351975138838E-01    9.9164118000314383E-01
H    1.1203607709245289E+00    8.3716512006964852E+00    8.1792323344822737E+00
H    2.0883187077764900E+00    8.9941496096233458E+00    7.0138877035392326E+00
H    8.9092455661170646E+00    7.7938840102078419E+00    9.2222118549481031E+00
H    9.0650442925881887E+00    8.4492400512116994E+00    1.0614283870982456E+01
H    1.0125293357175003E+01    7.6972294325267443E+00    6.4507709233859396E+00
H    1.0499855152538522E+01    9.1992705817145417E+00    6.1555311709816065E+00
H    3.4971231604226505E+00    3.9586904012080737E+00    2.1122844778208947E+00
H    4.0584146620666051E+00    4.5845739999388684E+00    7.4299547661153953E-01
H    7.3547300979708643E+00    9.3907717765816869E+00    1.2034662471096542E+01
H    7.3341917810682222E+00    7.7711469163739482E+00    1.2054219542751955E+01
H    7.8271815569080072E+00    1.0161811172290381E+01    5.7814619639484315E+00
H    7.7120113817887157E+00    9.5092512996362082E+00    7.2843726304682832E+00
H    5.2899463871887686E+00    6.4889429596081927E+00    6.3929757321025829E+00
H    4.8678252868838561E+00    6.3175211180862165E+00    4.8313586361437126E+00
H    1.1521862541305870E+01    2.1923283626799122E+00    4.2496614328178453E+00
H    1.1222791846958138E+01    7.8414795598372800E-01    4.7829538343864195E+00
H    8.8119942350217109E+00    9.6778779613704025E+00    3.9666686831538991E+00
H    9.9342844970874804E+00    1.0814156988790939E+01    3.7816372858603020E+00
H    3.1082289528957552E+00    1.0546326407174277E+01    5.2868803913859548E+00
H    4.3132584907104992E+00    1.1455620653057867E+01    5.0610780320728557E+00
H    4.2220406784278652E-01    7.3045102192444809E+00    3.8013135649941638E+00
H    2.9772343931224188E-01    5.7724401932040275E+00    3.4526995513596810E+00
H    7.5860591209727399E+00    6.5678847601546027E+00    3.2915836809344601E+00
H    6.6758385347286024E+00    5.3831754309177882E+00    2.5200133494028201E+00
H    3.8532534172199484E+00    6.3060046348702716E+00    2.8123783749705988E+00
H    2.7953246440735038E+00    6.5485847389780840E+00    3.9537741358610083E+00
H    5.5553176437612466E+00    8.0120599991628882E+00    8.6583941104719955E+00
H    6.9993930795498338E+00    7.4780238970674633E+00    8.4104344163926754E+00
H    9.5571588990614416E+00    7.3280446145757727E-01    3.0174818797266960E+00
H    8.9237164310791428E+00    1.3437510586161314E-01    4.4076447871976319E+00
H    3.8482457315671645E+00    1.1174438455171064E+01    1.3441470566656899E+00
H    3.9626056228576920E+00    1.0964278466897746E+01    3.0102551897950556E+00
H    5.9449661422370585E+00    7.8891857853088707E+00    2.7995741535957186E+00
H    4.7652120121303119E+00    8.7229381074891901E+00    3.5906717261658034E+00
H    1.0905815782848363E+01    5.5302201800695840E+00    4.9342869455827456E+00
H    9.5033245323311348E+00    4.6732708376728809E+00    4.7171193166486685E+00
H    1.1491942104116786E+01    9.0018887406789254E+00    3.3983649908367606E+00
H    1.1959903629039299E+01    8.7851547644292332E+00    4.9401026898658724E+00
H    2.9404439844275525E+00    1.1333326721638290E+01    7.4881123877731017E+00
H    1.3993518978819324E+00    1.1120275827042837E+01    6.8063456551225334E+00
H    7.2181951384382854E+00    1.2809608485326004E-01    9.7032371258681938E+00
H    7.1648660378594489E+00    1.0772078745139607E-01    1.1367500988399785E+01
H    4.8113412051056317E+00    9.3237474535607170E+00    1.0837702423611953E+01
H    6.0816481698035965E+00    9.8060697913095503E+00    1.0186927365163390E+01
H    1.0565212262638454E+01    6.7306908548556876E+00    1.0314443980527887E+01
H    1.1239043366237466E+01    5.5938377372083901E+00    9.3143651163973242E+00
H    1.2188456954751684E+01    8.9927460848975613E+00    1.0127821223536904E+01
H    1.1415764242458108E+01    8.6329965781021176E+00    8.6365688433572707E+00
     &END COORD
     &VELOCITY
           2.4353373553203392E-04   -1.2006097602709763E-04    8.6380096428607500E-05
           5.1311970177788649E-05   -1.2708266220631357E-06   -1.4048482607369983E-05
          -1.3298767757278094E-04   -8.3910828186741979E-05   -1.7227772179866002E-04
           3.2311111387338832E-04   -2.8974228281228591E-04    2.2815855771214373E-04
           3.6807112799752310E-04   -1.6540691872308857E-04    8.2168021724115132E-05
           8.6843810079763721E-05   -1.6733145784994334E-04    2.3233906169796209E-04
          -1.9144732815686049E-04    3.6490306373571198E-05    1.7692428816444008E-04
          -2.7339212137196561E-04   -2.0181330324832312E-06   -2.5185283188779395E-04
          -2.9114797156539032E-04    1.4202524657141535E-04   -9.4207613533385908E-05
           4.9604684382188231E-05    1.9764986075514545E-04   -3.9675655900118847E-05
          -1.0338266296044105E-04    2.5533554886901885E-04   -1.7753567723071914E-04
           1.2393271803235901E-04   -5.1522817962504132E-05    2.4869105054699486E-04
           3.7171385612237420E-05    1.3912087635278801E-04   -2.6001104941654826E-04
          -9.0584380442480171E-05   -5.4256969624629533E-05    1.3571849163634077E-04
          -1.3532069034404260E-05    2.9312535024520077E-04   -1.1035216194542285E-04
           3.4365663856436926E-04    1.2592891247618495E-04    1.2984947778367875E-04
           3.1061310688721494E-05   -2.1491061234596027E-04    1.3642911352227256E-04
          -1.1197980598923523E-04    8.8708519144855012E-05    8.1551359029377455E-05
           7.2553977150404815E-05   -7.4882564047852755E-05   -3.7593240429408198E-05
          -3.9311008769936048E-05    7.7794970773470732E-05   -4.9503853883158954E-05
           1.3050850736378319E-04    3.2997372842397211E-05    2.3384938882061224E-04
          -2.3506710107405295E-04   -1.3038351983471689E-04   -7.8872779761040608E-05
           2.2656471395859142E-04    3.8984618353081842E-06   -1.0674489559575110E-04
          -4.8910812396588555E-04   -8.8250996371505908E-05    4.1168871694162961E-05
          -2.3516505104507389E-04    3.0141522875887412E-05   -4.3307021529685265E-05
           2.3874077440575492E-04    1.6479626533073708E-04   -6.5961174414962515E-06
           2.1570400439834149E-06   -3.6687604474236522E-04    1.9056449024503257E-05
           1.5263290745651495E-04   -4.5423683354101707E-05   -4.7828240980755001E-05
          -2.4361660474167527E-04   -1.5799538490284844E-04    1.4701044899490602E-04
          -4.6332302278126923E-05    6.6958418741294343E-05   -1.4093723621380708E-04
           7.0402526348622247E-05    1.4787938508892194E-04    2.3294646136572068E-04
          -1.0541845847110250E-04    9.0959878375307135E-05    1.4239486316531595E-04
           3.9447066267391499E-04    6.7697585287564859E-05    1.1078543440025102E-04
          -7.7642050396991362E-05   -1.2536442818533700E-04   -1.9896428319712413E-04
           4.0834731830742137E-04    1.4767279244991339E-04    2.0697580192127833E-05
          -2.3059415804875598E-04   -1.2069261926454687E-04    1.1528847271934487E-04
          -2.2453224222869527E-04    3.2508315209836238E-04   -1.1011175869270147E-04
          -2.5223464560201115E-05    3.9102949516739703E-04    1.6353834116335041E-04
           2.2717843314864117E-05   -6.2765751653394372E-06    4.4671040029382789E-05
          -2.2749659830648825E-04   -6.9576305505109660E-06    6.3788388337281839E-05
          -7.5841302718324672E-05    8.7087799012218925E-05   -2.6939094015329690E-04
          -1.5166914072236800E-04   -1.6482446184411077E-04   -8.8619423403627927E-05
           8.3255811687199812E-06   -5.3065384631595875E-05   -7.5044278376646450E-05
           6.6403553283334181E-05    1.1865592146609196E-04   -1.6876922794216315E-04
          -3.6854176965719427E-04   -4.4916679521353497E-04   -7.2212204725134488E-05
          -1.2514834926122145E-04   -2.1658705550751809E-04    1.4279407557147786E-05
           1.5301292386523215E-04    7.8212466735943340E-05   -2.6042789655567668E-04
           1.1597437780919017E-04    1.3153166326640447E-04    1.9714489345681009E-05
          -2.7586288468860781E-05    4.9135802992242005E-05   -8.2847135185039529E-05
           1.7533037836987898E-04   -1.0200057778937800E-04   -1.5955910870986861E-05
           9.1305293484541107E-06   -1.7063363096477330E-04   -1.2704533408685080E-04
           2.0532414020143610E-04   -1.8523108331007800E-04    1.5576953260084113E-04
          -9.5082342048907829E-05    3.8898283928842702E-04    6.8143354603209509E-05
          -3.3468517680958416E-05    1.1413973594311473E-04    4.8372670609031302E-05
          -3.2167308794209921E-04   -6.7373694363335676E-05   -3.3440505798363078E-04
          -1.0565699375435640E-04   -1.8612919959495929E-04   -4.1185047197005533E-05
           3.0227443464045432E-04   -1.9476821777775373E-08   -4.0898192670238352E-05
           3.4132859751142408E-04   -7.5666618756746134E-05    3.1369871723573299E-04
           4.8774504464005292E-06    9.5432986767971523E-05    4.0463993790995448E-05
          -7.3525642131547613E-05   -1.1023344657372890E-04   -1.6990266178626781E-04
          -9.5305467321088629E-05    1.5924492797695188E-04    1.0050784054881724E-04
           2.9577992716584532E-04   -2.0302338272641039E-04   -3.8000268558773954E-06
           3.3426751499603738E-05    2.9960856876058238E-05    2.2957098675140477E-05
           2.1247046209886119E-04   -1.8773508816484312E-04   -7.1323934923966581E-05
          -4.5158839413317407E-04   -3.6143060077228629E-05   -6.1976176341357219E-04
           9.6706711087549461E-04   -4.1494673937950442E-04   -1.4270244722042328E-03
           7.4657709739116415E-04    7.4979183341359354E-04   -2.9716006650579635E-05
           1.1944835029938576E-03   -2.4887952169347257E-04   -4.6965328168678436E-04
           3.3415678178275990E-04   -4.4057529885156417E-04   -4.5347033644515584E-04
           1.1012796130009344E-03    2.9083917955562426E-04   -1.2194190254956187E-03
           2.2415342341825791E-04    1.5937251548468084E-03   -3.7781211911250073E-04
           1.0073465758490261E-03   -6.8157982680669589E-04    2.6183752026268060E-04
          -6.9769183637397934E-05    2.4841597117220810E-05   -1.3349984298897583E-04
          -6.5395783735419687E-04   -1.1729839030916886E-04    1.7209949838058942E-04
          -6.3912725034391570E-04   -9.4833908164106194E-04   -2.5753189732402690E-04
          -3.9187509729259528E-04   -2.4417797176734464E-04   -5.0822500047752249E-04
           2.8904185307758679E-04   -2.0455475311389323E-03   -7.4488003303837689E-04
           3.8533435940701379E-04   -1.5649598638799744E-03   -8.1999331589839336E-04
           6.6163782210820667E-04   -2.0530137992793974E-04   -4.7022778535197424E-04
          -4.8571775219688403E-05   -1.4283455067393336E-03    8.4970777264369371E-04
          -5.1040502072016302E-04    9.0124041076789104E-04   -4.3717828657469451E-04
           2.7962496774094155E-04    1.1112791910188676E-04   -5.6980553869801810E-04
          -1.5080494509555340E-03    7.3672779722819314E-04   -5.7541529095355239E-06
           2.4475429620538517E-04    9.7437756642528061E-04   -4.8339679943524172E-04
          -8.5981680080774846E-05    5.9512037266923465E-04   -4.8949501761448602E-05
          -6.8266467564685707E-04   -5.5567223333590160E-04    7.1350489601930444E-04
           4.8033714492412520E-05    6.5011279413856144E-04   -7.7943973950049560E-04
           8.0491911098236473E-05   -7.8343749752797813E-04    7.2435736497996055E-04
           2.5839724570920369E-04    7.5578985188894224E-05   -5.8507007757819239E-04
           3.2468632064899426E-04   -2.7324024724329876E-04    2.5249479694763237E-04
          -1.0539062839288449E-03    5.0616494373881325E-04    7.1049452486263479E-04
           8.0541579377124413E-04   -1.4428395473479506E-04   -9.1111624630030145E-04
          -9.3901405508302089E-05   -1.7440336409748464E-04   -6.6695306718604251E-04
          -5.9667439631865774E-04    2.1020879938549843E-03   -1.6524975843829696E-04
          -5.9413689338850975E-04   -1.8314218673331334E-04   -3.0878549940664327E-04
          -1.1299139623067548E-04   -1.9706794256192387E-04    5.4164798334068419E-04
           3.7379192865946557E-04   -2.2187500989292807E-04   -3.6215118741930057E-04
          -5.2111287106960480E-04    8.9091209793530797E-04   -5.6207250900647179E-04
           6.7919292605843860E-04    1.3343181454498045E-04   -5.4958333089122824E-04
          -5.0955912350759925E-05   -7.8811310899900861E-04    5.3306738438568585E-04
          -8.4615276351330480E-05   -4.3969810880184826E-04   -1.5061331385061117E-03
           1.9621493944359928E-04    7.0658921104159867E-04    7.9834173948458115E-04
          -3.1086266728355558E-04    7.4710976671399473E-04    4.9983161015919634E-04
          -7.7088036734328572E-04    8.7923123999221497E-04    4.4906439902341218E-04
           4.7843808737778830E-04    2.0885304145141348E-04    9.9081078441371406E-04
           2.7383478091077841E-04   -1.2076470171009670E-05    2.0312636572839796E-03
           2.2238602224555954E-04    4.5732113706274647E-04    2.0297495633902667E-03
          -1.3983314819856403E-04    6.4110517558957066E-04    2.3541721874419271E-04
           1.0634351964063967E-03   -8.1406755449320192E-04    2.5592615928638857E-04
           5.5764666824596461E-04   -2.4944020396139624E-04    1.0095491375681648E-03
           8.2355304834993233E-04    4.6265598282025055E-04    1.0873683440557509E-03
           1.0554542732452016E-03    1.4711843503840258E-03   -1.9257994644126511E-04
          -5.9301436635045344E-04    1.4338243179642485E-03   -1.0518598720379308E-03
           1.7009542630836360E-04   -2.7229621441734802E-04   -1.8275874434213354E-04
          -3.9794180044857034E-04    1.1377334676062050E-03    1.5111872074900160E-04
          -2.1010779021135714E-04    2.5908254733776338E-04    1.2965840741008046E-03
           5.7014687399564365E-04    4.3663748724090336E-04   -1.4622705924352000E-04
           2.7451658005888264E-04   -1.1055104188299305E-04   -2.7011911347937654E-04
          -1.5488517943977047E-03   -4.8268639177433944E-04    1.0661735520010346E-03
           1.1223093817405250E-04    6.1336181168048973E-04   -2.4337739021499839E-04
          -8.4642821008371625E-04    2.7314900746923615E-04    4.4966165017806163E-04
          -9.0281864257840054E-04    4.6471968390882686E-04   -2.6632644266422797E-04
          -1.1909602595330700E-03    3.2546725745608544E-05   -5.5177771595116512E-05
           2.6878284876819236E-04   -1.1019214431266602E-03    6.7804196597895676E-04
           3.1926309387909560E-04    1.0177813137546466E-03   -3.0847823993304364E-04
          -4.2284471690932202E-04    4.3959034011461471E-04   -8.2960000476176227E-04
           4.5763012012699938E-04   -7.2873611065807635E-04   -1.9810871953827879E-04
          -2.5435809607704074E-04   -2.9857092395398608E-04    4.0812967128299937E-04
          -1.7369381694220469E-04    6.5701533355746610E-04    1.2674523034339846E-03
           2.5615963332899938E-04   -1.0911306546916626E-06    1.1679000472715729E-03
          -1.6308109873330873E-05    1.3149337651355577E-03    1.0407917755933631E-03
           8.9763869709820465E-04   -3.3652501425611219E-04    5.8254652403059439E-04
           1.0486726918970547E-03    1.4387708623022147E-04   -1.3227328924959583E-03
          -7.1280006661914627E-04    3.7576614693960792E-04   -7.8229807967677598E-04
          -4.9597517539646480E-05    2.0943390434441680E-05   -3.3577883355709418E-04