 # Version information for this restart file 
 # current date 2023-07-20 14:07:38.266
 # current working dir /mnt/lustre/indy2lfs/work/tc047/tc047/mrnuff-cirrus/cp2k
 # Program compiled at                              Thu Jun 30 12:29:55 BST 2022
 # Program compiled on                                             cirrus-login3
 # Program compiled for                                             Cirrus-intel
 # Source code revision number                                       git:e635599
 &GLOBAL
   PRINT_LEVEL  LOW
   PROJECT_NAME H2O-64
   RUN_TYPE  MD
 &END GLOBAL
 &MOTION
   &MD
     ENSEMBLE  NVE
     STEPS  10
     TIMESTEP     4.9999999999999994E-01
     STEP_START_VAL  10
     TIME_START_VAL     4.9999999999999982E+00
     ECONS_START_VAL    -1.1007588181101416E+03
     TEMPERATURE     3.0000000000000000E+02
     &AVERAGES  T
       &RESTART_AVERAGES
         ITIMES_START  1
         AVECPU     1.6729707339580635E+01
         AVEHUGONIOT     0.0000000000000000E+00
         AVETEMP_BARO     0.0000000000000000E+00
         AVEPOT    -1.1010668160173032E+03
         AVEKIN     3.0070034549364744E-01
         AVETEMP     3.3142598856038433E+02
         AVEKIN_QM     0.0000000000000000E+00
         AVETEMP_QM     0.0000000000000000E+00
         AVEVOL     1.2909542132085598E+04
         AVECELL_A     2.3458682268415796E+01
         AVECELL_B     2.3458682268415796E+01
         AVECELL_C     2.3458682268415796E+01
         AVEALPHA     9.0000000000000000E+01
         AVEBETA     9.0000000000000000E+01
         AVEGAMMA     9.0000000000000000E+01
         AVE_ECONS    -1.0896372651976765E+01
         AVE_PRESS     0.0000000000000000E+00
         AVE_PXX     0.0000000000000000E+00
       &END RESTART_AVERAGES
     &END AVERAGES
   &END MD
 &END MOTION
 &FORCE_EVAL
   METHOD  QS
   &DFT
     BASIS_SET_FILE_NAME GTH_BASIS_SETS
     POTENTIAL_FILE_NAME POTENTIAL
     &SCF
       SCF_GUESS  ATOMIC
       &OT  T
         MINIMIZER  DIIS
       &END OT
       &PRINT
         &RESTART  OFF
         &END RESTART
       &END PRINT
     &END SCF
     &QS
       EPS_DEFAULT     9.9999999999999998E-13
       EXTRAPOLATION  PS
       EXTRAPOLATION_ORDER  3
     &END QS
     &MGRID
       CUTOFF     2.8000000000000000E+02
       REL_CUTOFF     3.0000000000000000E+01
     &END MGRID
     &XC
       DENSITY_CUTOFF     1.0000000000000000E-10
       GRADIENT_CUTOFF     1.0000000000000000E-10
       TAU_CUTOFF     1.0000000000000000E-10
       &XC_FUNCTIONAL  NO_SHORTCUT
         &PADE  T
         &END PADE
       &END XC_FUNCTIONAL
     &END XC
   &END DFT
   &SUBSYS
     &CELL
       A     1.2413800000000002E+01    0.0000000000000000E+00    0.0000000000000000E+00
       B     0.0000000000000000E+00    1.2413800000000002E+01    0.0000000000000000E+00
       C     0.0000000000000000E+00    0.0000000000000000E+00    1.2413800000000002E+01
       MULTIPLE_UNIT_CELL  1 1 1
     &END CELL
     &COORD
O    1.2265692089484144E+01    1.3554390129941560E+00    1.0875425741210499E+01
O    6.4523125712781493E+00    3.7059030017230379E+00    8.6472703373290773E+00
O    7.7679434805523737E-02    2.1684363409618652E+00    8.2608499727944409E+00
O    1.2086328917682046E+01    2.6383236471458247E+00    2.1708319631148005E+00
O    1.2290563434792627E+01    4.1705987030845275E+00    1.2102197401501353E+01
O    7.2035546534508068E+00    9.4146440982920143E-01    4.7596753308530309E+00
O    8.3332259924710179E+00    7.2077559238211322E+00    4.6827252174470235E+00
O    1.2331820354972656E+01    1.1521085584601028E+01    8.0815267568453493E+00
O    3.2742305248728858E+00    4.4591006237001025E+00    9.1745323461746544E+00
O    2.8601657947013090E+00    3.7871321994318339E+00    6.5410904120531717E+00
O    1.3797135980522519E+00    6.3917883108529496E+00    5.6509499049335687E-01
O    1.8717778176466551E+00    8.6859327223322200E+00    2.0908475002933362E+00
O    3.7724126920715007E+00    1.2107291686118606E+01    8.6205990988999801E+00
O    6.4253612010426115E+00    3.6667844669336409E+00    2.7875787966085843E+00
O    1.9996801569167233E+00    1.8525818618606917E+00    4.8671305057775864E+00
O    8.2870264289442694E+00    2.4221945186201177E+00    6.9417301194040304E+00
O    5.7524965525742520E+00    3.3354063225406634E+00    1.2486444073906728E+01
O    1.1313041873264378E+01    5.6568394091370813E+00    2.2481538681310083E+00
O    4.2889086332746844E+00    2.1146774663677710E+00    1.0586400462686933E+01
O    5.3988008779578749E+00    3.3584215761666565E+00    5.4859980676064133E+00
O    6.5093803283314795E+00    1.1870555907452166E+01    7.1448610258288292E-01
O    3.2525927590518160E+00    2.3434818290720685E+00    2.4132514479860596E+00
O    8.0086796499284514E+00    6.3565335203089282E+00    7.4977752039607637E+00
O    5.9288585788255350E+00    6.5082801666041936E+00    1.2195796701642584E+01
O    1.0610385294795838E+01    1.1861264429738402E+01    1.2200574174939907E+01
O    9.3403690756569997E+00    3.6890996107164988E+00    3.5273423653475549E+00
O    1.1111278086578718E+00    5.7890355206452719E+00    6.6473009501981686E+00
O    8.0194995343333062E+00    3.3269739508473117E+00    1.0869758841489858E+01
O    1.2376084676796392E+01    9.6748049821029998E+00    1.1772442429127745E+01
O    4.2098962719503641E+00    7.0914037241390169E+00    8.1403049780540275E+00
O    3.7839656891273510E+00    8.2290488153632424E+00    1.1585038748793012E+01
O    1.1076296436002908E+01    4.5429033328724326E+00    7.8327522122955129E+00
O    1.0435269965490523E+01    8.4217711221834506E+00    1.0328413587523160E+00
O    1.9828015281275881E+00    6.4005825276166322E+00    1.0353823655978594E+01
O    4.7041682767467687E+00    5.6227133611209212E-01    5.6097237226910321E+00
O    8.7178718108892319E+00    1.2242115811187377E+01    8.0976567639232577E+00
O    2.6327341025094295E+00    1.0520521873272509E+01    8.2905623926738989E-02
O    7.2399931187468258E+00    1.0511642196931632E+01    4.2432664330028844E+00
O    2.2807064781617821E+00    2.7612056427312193E-01    1.0807250569989113E+01
O    8.8632061138829279E+00    9.4642072500217878E-01    1.3400856795974863E+00
O    1.9443088048742940E+00    8.0893935868695177E+00    7.5355059867710787E+00
O    9.6598248299587421E+00    8.0355046451626997E+00    9.8565400345213021E+00
O    1.0903669851584413E+01    8.3307153998977643E+00    6.4773146916024507E+00
O    3.5124567442237531E+00    4.8693650210821948E+00    1.5451764009707867E+00
O    7.9775830453591032E+00    8.6026723333302879E+00    1.2050849513770910E+01
O    8.3694035479504230E+00    1.0019371052442859E+01    6.6836141760226537E+00
O    5.6546743218581001E+00    6.0810664230947333E+00    5.5283846573828201E+00
O    1.1742547847645341E+01    1.6241840639033691E+00    5.0859575162072730E+00
O    9.7585719615143312E+00    9.8110347715521282E+00    3.5364867774940913E+00
O    3.9627876574399887E+00    1.0548914651573982E+01    4.6848634346388609E+00
O    9.0110847254983062E-01    6.3699180308685346E+00    4.0614677068442022E+00
O    6.8825857356121496E+00    6.4084220847945996E+00    2.5046902581442607E+00
O    3.8180799995398713E+00    6.6391276583282091E+00    3.7786506828596349E+00
O    6.5639457974899758E+00    8.3081696931558451E+00    8.8142644496198006E+00
O    9.7792965800926446E+00    1.3440562766331712E-01    3.8518038249084658E+00
O    4.1040770115655345E+00    1.1645978558721517E+01    2.2167390496174786E+00
O    5.3225394392113934E+00    8.7370879819812526E+00    2.7520568939069063E+00
O    1.0008064086737223E+01    5.3735087324373358E+00    5.3757728940150216E+00
O    1.2260297782908740E+01    8.6464340629361214E+00    3.9709777917869804E+00
O    2.3431345497116887E+00    1.0747243885368604E+01    6.8128217267253879E+00
O    7.0016612916654104E+00    6.6240597665993095E-01    1.0534341561687944E+01
O    5.1725047982212544E+00    1.0218495319125177E+01    1.0357205957141186E+01
O    1.1186316801593971E+01    5.8851524495734493E+00    1.0299193203865928E+01
O    1.2277001782589631E+01    8.9569716794264043E+00    9.0707884188588093E+00
H    1.2357840653883770E+01    2.3335995753232357E+00    1.1187202568865365E+01
H    1.1946181003855122E+01    1.5338243304131853E+00    9.8820686313886430E+00
H    5.5871540557017525E+00    3.4492983737404228E+00    9.0442905792571633E+00
H    6.8930493554858003E+00    3.0239782285781311E+00    7.9852283560207127E+00
H   -1.4374297117052792E-01    1.5098214846045692E+00    7.5263531243349853E+00
H   -3.8865416711647638E-01    3.0530974755011049E+00    7.9298823362669015E+00
H    1.2176354233156070E+01    2.9746344065044936E+00    1.1924463434413777E+00
H    1.2991627169714715E+01    2.9143170210553944E+00    2.5155346727350594E+00
H    1.1517585159655294E+01    4.3255122446510104E+00    1.1434691026734825E+01
H    1.2784953658522625E+01    5.0635466714138264E+00    1.2040055000810440E+01
H    6.9671401310546290E+00    1.7387343976999943E+00    4.1849967664933860E+00
H    6.2296009063340980E+00    6.8946782722567312E-01    5.1579113656936935E+00
H    7.7273594948723181E+00    7.2216808380967752E+00    5.4888761780282431E+00
H    9.1691701765445774E+00    6.6296086344958365E+00    4.9460727574870065E+00
H    1.2846883768257179E+01    1.1781070688352315E+01    8.9005192602374734E+00
H    1.1983330930256017E+01    1.0563456761595461E+01    8.3168613221545495E+00
H    3.5249173108190313E+00    3.8402074967257178E+00    9.9510006399908821E+00
H    2.4297337650178874E+00    4.9330989925204269E+00    9.5245628999120342E+00
H    2.1731627523284609E+00    4.5583640086431272E+00    6.3013579985294834E+00
H    2.8563500932222028E+00    3.8576048156131773E+00    7.5841394106043731E+00
H    1.1402120515026339E+00    7.1967347480545785E+00    1.1594244541623737E+00
H    2.2451038169240420E+00    6.0044688738674434E+00    1.0028737587426784E+00
H    2.8159635337999931E+00    8.9701748198754530E+00    2.2995199891603226E+00
H    1.3289544665078115E+00    8.9939926467747107E+00    2.8983257079460150E+00
H    4.4550218369063570E+00    1.1540339425004023E+01    9.1644203320317423E+00
H    3.0505860859913132E+00    1.2474023132569744E+01    9.2862357274721941E+00
H    5.8591510063948311E+00    3.4580809397757601E+00    3.6616773633302753E+00
H    5.8328342793251968E+00    3.4003555439694653E+00    1.9823495664215258E+00
H    9.5573469725983606E-01    1.6451477306438611E+00    4.8407733836323992E+00
H    2.2282991647315606E+00    2.4813299829865811E+00    5.6872650230030279E+00
H    8.4431290012368407E+00    1.6050270153555586E+00    7.5442513472476982E+00
H    8.0660702671746574E+00    2.0137128293844975E+00    6.0338191030224859E+00
H    5.2179579256218451E+00    2.8944435585820600E+00    1.1676379626019285E+01
H    6.6808372388706960E+00    3.4137338960715118E+00    1.1974227321955333E+01
H    1.0787628803144303E+01    6.5181395670614943E+00    2.0987991922620455E+00
H    1.1679773573100235E+01    5.3602522151470700E+00    1.3423877172504051E+00
H    3.4353203684183433E+00    1.5422281194351157E+00    1.0899348788952564E+01
H    4.8360131199378049E+00    1.4266306188299662E+00    1.0089887937303054E+01
H    4.3860802582007290E+00    3.3639520802572465E+00    5.6883523933804057E+00
H    5.6851424648150033E+00    4.3694414775809554E+00    5.5473743673639655E+00
H    6.2905172776219098E+00    1.1824099733752758E+01    1.7188529435633377E+00
H    5.6254822935029187E+00    1.2118652077617634E+01    3.2827489265266530E-01
H    3.5448338646064728E+00    1.3905272139798628E+00    2.1815170599090510E+00
H    2.6082617908443519E+00    2.2011793682002008E+00    3.2448585926825286E+00
H    7.1214310944137420E+00    5.8746986475782927E+00    7.5240902705299186E+00
H    8.6555160452200433E+00    5.7349833608718184E+00    7.0296645633658965E+00
H    6.0004465275683048E+00    5.6511979030149355E+00    1.1673025686979024E+01
H    6.2576534574152678E+00    6.3249880564328773E+00    1.3168261180251646E+01
H    1.1110393485506822E+01    1.2636559250997763E+01    1.1695509562618852E+01
H    1.0264574453193379E+01    1.2297166054266686E+01    1.3044673119309980E+01
H    9.9063257583752566E+00    4.0523254539294209E+00    2.7328096710806404E+00
H    8.5320976562308033E+00    3.4662435851506661E+00    2.9418258347996682E+00
H    1.4549325922336520E+00    6.6684406032659229E+00    7.1063381287437970E+00
H    1.0013233336703413E+00    6.1758231958594765E+00    5.6553319488929406E+00
H    7.9834584102627808E+00    3.6965662970348587E+00    9.9295362401115224E+00
H    8.0702893407918008E+00    2.3148727995367047E+00    1.0750118168091213E+01
H    1.1741851247337436E+01    1.0457041172522461E+01    1.2099135806993480E+01
H    1.2145140467196288E+01    8.9346530857757287E+00    1.2412210742861483E+01
H    3.3373535314761922E+00    7.6121200308659267E+00    7.8531045761945322E+00
H    3.8438071109328198E+00    6.2417161568847686E+00    8.6114175129833370E+00
H    3.1132077807662695E+00    7.6196920981173779E+00    1.1070308623797491E+01
H    4.4752997918986797E+00    7.6309327249724790E+00    1.2076616644957992E+01
H    1.1595109347940010E+01    4.9846383472191542E+00    7.0588447442726627E+00
H    1.0300198428127569E+01    4.1359917521752418E+00    7.3179795841172819E+00
H    1.0066803629044909E+01    8.9449101926893313E+00    1.8648409458423161E+00
H    9.5721275817999398E+00    8.2654871620115387E+00    4.9820470823184093E-01
H    1.3188214514372152E+00    6.6901027276278491E+00    9.6503048603183608E+00
H    1.4021624816945628E+00    6.4512365186845262E+00    1.1227722789146680E+01
H    4.1225373888742061E+00    1.3301382656581893E+00    5.2661059713504708E+00
H    4.6863100279905847E+00    6.4323888153765307E-01    6.6181558656211932E+00
H    9.4703533710562020E+00    1.2334177792060705E+01    8.7409520154273910E+00
H    8.8486737260995607E+00    1.1353175343937366E+01    7.5414016813702718E+00
H    1.7346635260605026E+00    1.0023247752458705E+01    1.4531246290722280E-01
H    3.3374323737190128E+00    9.8445600332822281E+00   -2.3573946363306186E-01
H    7.0505799823402642E+00    1.1506005604268221E+01    4.1255571139621487E+00
H    6.4716019298283758E+00    9.9354966266946221E+00    3.7910911532805680E+00
H    1.3268589592370181E+00    5.8377393430458147E-01    1.1128929736798103E+01
H    2.5223619020796839E+00   -5.4513600115348082E-01    1.1460522258352020E+01
H    8.7695024945570843E+00    1.8730405160132042E+00    9.9029984538929261E-01
H    8.0908940305279113E+00    3.3984351975219346E-01    9.9164117999684520E-01
H    1.1203607709231815E+00    8.3716512006955721E+00    8.1792323344823394E+00
H    2.0883187077779684E+00    8.9941496096243263E+00    7.0138877035409264E+00
H    8.9092455661187859E+00    7.7938840102023077E+00    9.2222118549461243E+00
H    9.0650442925873005E+00    8.4492400512124437E+00    1.0614283870981570E+01
H    1.0125293357177648E+01    7.6972294325237733E+00    6.4507709233879380E+00
H    1.0499855152534122E+01    9.1992705817142362E+00    6.1555311709862925E+00
H    3.4971231604235782E+00    3.9586904012081190E+00    2.1122844778211092E+00
H    4.0584146620662516E+00    4.5845739999396784E+00    7.4299547661096610E-01
H    7.3547300979719354E+00    9.3907717765824099E+00    1.2034662471091993E+01
H    7.3341917810681005E+00    7.7711469163731435E+00    1.2054219542748067E+01
H    7.8271815569081573E+00    1.0161811172290655E+01    5.7814619639485176E+00
H    7.7120113817876028E+00    9.5092512996373113E+00    7.2843726304680452E+00
H    5.2899463871852026E+00    6.4889429596060051E+00    6.3929757321023226E+00
H    4.8678252868824163E+00    6.3175211180843061E+00    4.8313586361449481E+00
H    1.1521862541305392E+01    2.1923283626802368E+00    4.2496614328176863E+00
H    1.1222791846957159E+01    7.8414795598426157E-01    4.7829538343866229E+00
H    8.8119942350196698E+00    9.6778779613707790E+00    3.9666686831516569E+00
H    9.9342844970892248E+00    1.0814156988789325E+01    3.7816372858616241E+00
H    3.1082289528957481E+00    1.0546326407174069E+01    5.2868803913855773E+00
H    4.3132584907110676E+00    1.1455620653057528E+01    5.0610780320741098E+00
H    4.2220406784302628E-01    7.3045102192442304E+00    3.8013135649927214E+00
H    2.9772343931245238E-01    5.7724401932036296E+00    3.4526995513609422E+00
H    7.5860591209741424E+00    6.5678847601538086E+00    3.2915836809335146E+00
H    6.6758385347275109E+00    5.3831754309179871E+00    2.5200133494028787E+00
H    3.8532534172195132E+00    6.3060046348697973E+00    2.8123783749703790E+00
H    2.7953246440736437E+00    6.5485847389776515E+00    3.9537741358610017E+00
H    5.5553176437609801E+00    8.0120599991637977E+00    8.6583941104691426E+00
H    6.9993930795489359E+00    7.4780238970673301E+00    8.4104344163935973E+00
H    9.5571588990611858E+00    7.3280446145726297E-01    3.0174818797266116E+00
H    8.9237164310788284E+00    1.3437510586355791E-01    4.4076447871971398E+00
H    3.8482457315709007E+00    1.1174438455170097E+01    1.3441470566655516E+00
H    3.9626056228604480E+00    1.0964278466896504E+01    3.0102551897941905E+00
H    5.9449661422362512E+00    7.8891857853081087E+00    2.7995741535963452E+00
H    4.7652120121277850E+00    8.7229381074884635E+00    3.5906717261638255E+00
H    1.0905815782849107E+01    5.5302201800698709E+00    4.9342869455826142E+00
H    9.5033245323301134E+00    4.6732708376733090E+00    4.7171193166487928E+00
H    1.1491942104116292E+01    9.0018887406804851E+00    3.3983649908385178E+00
H    1.1959903629043312E+01    8.7851547644284604E+00    4.9401026898672100E+00
H    2.9404439844274979E+00    1.1333326721639212E+01    7.4881123877729472E+00
H    1.3993518978820974E+00    1.1120275827043070E+01    6.8063456551220449E+00
H    7.2181951384363874E+00    1.2809608485415655E-01    9.7032371258675116E+00
H    7.1648660378580677E+00    1.0772078745202025E-01    1.1367500988400236E+01
H    4.8113412051064923E+00    9.3237474535599620E+00    1.0837702423611864E+01
H    6.0816481698035272E+00    9.8060697913090156E+00    1.0186927365163770E+01
H    1.0565212262640390E+01    6.7306908548577109E+00    1.0314443980527022E+01
H    1.1239043366237778E+01    5.5938377372092258E+00    9.3143651163977186E+00
H    1.2188456954750801E+01    8.9927460848954635E+00    1.0127821223536001E+01
H    1.1415764242460934E+01    8.6329965780981563E+00    8.6365688433559793E+00
     &END COORD
     &VELOCITY
           2.4353373553288863E-04   -1.2006097602545435E-04    8.6380096427835887E-05
           5.1311970177838054E-05   -1.2708266200776350E-06   -1.4048482611494305E-05
          -1.3298767757316594E-04   -8.3910828184020279E-05   -1.7227772180158446E-04
           3.2311111387052288E-04   -2.8974228281033858E-04    2.2815855771104510E-04
           3.6807112799879828E-04   -1.6540691871434580E-04    8.2168021721255183E-05
           8.6843810078335366E-05   -1.6733145785257199E-04    2.3233906169899839E-04
          -1.9144732815654949E-04    3.6490306373351898E-05    1.7692428817134637E-04
          -2.7339212137370282E-04   -2.0181330323359110E-06   -2.5185283188692984E-04
          -2.9114797156660756E-04    1.4202524657023241E-04   -9.4207613533936845E-05
           4.9604684383632476E-05    1.9764986075641709E-04   -3.9675655901470339E-05
          -1.0338266296065811E-04    2.5533554886855708E-04   -1.7753567723204081E-04
           1.2393271803074537E-04   -5.1522817960548922E-05    2.4869105054756548E-04
           3.7171385611043937E-05    1.3912087635318740E-04   -2.6001104941459366E-04
          -9.0584380440304421E-05   -5.4256969622926042E-05    1.3571849163644244E-04
          -1.3532069033804513E-05    2.9312535024590605E-04   -1.1035216194635027E-04
           3.4365663856462128E-04    1.2592891247357582E-04    1.2984947778140333E-04
           3.1061310687315894E-05   -2.1491061234676177E-04    1.3642911352105468E-04
          -1.1197980598340613E-04    8.8708519142645842E-05    8.1551359031518863E-05
           7.2553977152864518E-05   -7.4882564046649874E-05   -3.7593240428932003E-05
          -3.9311008768928112E-05    7.7794970776480572E-05   -4.9503853886189495E-05
           1.3050850736026236E-04    3.2997372835952293E-05    2.3384938882179041E-04
          -2.3506710107414020E-04   -1.3038351983237842E-04   -7.8872779759830855E-05
           2.2656471395671046E-04    3.8984618358237325E-06   -1.0674489560074937E-04
          -4.8910812396732483E-04   -8.8250996374117033E-05    4.1168871694010068E-05
          -2.3516505104290833E-04    3.0141522873214068E-05   -4.3307021531737951E-05
           2.3874077440326098E-04    1.6479626533159292E-04   -6.5961174424810222E-06
           2.1570400438646939E-06   -3.6687604473857832E-04    1.9056449024013557E-05
           1.5263290745574188E-04   -4.5423683353241135E-05   -4.7828240980219859E-05
          -2.4361660474212524E-04   -1.5799538490362996E-04    1.4701044899883905E-04
          -4.6332302281339007E-05    6.6958418737570258E-05   -1.4093723621142428E-04
           7.0402526345517309E-05    1.4787938508649217E-04    2.3294646136907165E-04
          -1.0541845847199329E-04    9.0959878370602945E-05    1.4239486316634093E-04
           3.9447066267738682E-04    6.7697585283594511E-05    1.1078543439916772E-04
          -7.7642050406777290E-05   -1.2536442817950182E-04   -1.9896428319953702E-04
           4.0834731830461458E-04    1.4767279245075292E-04    2.0697580190398317E-05
          -2.3059415805490039E-04   -1.2069261926199615E-04    1.1528847271717244E-04
          -2.2453224223077065E-04    3.2508315209558959E-04   -1.1011175869215226E-04
          -2.5223464557801077E-05    3.9102949516754161E-04    1.6353834116125310E-04
           2.2717843313112453E-05   -6.2765751658159280E-06    4.4671040024526478E-05
          -2.2749659831015608E-04   -6.9576305486141467E-06    6.3788388338428519E-05
          -7.5841302721048608E-05    8.7087799015791154E-05   -2.6939094015518785E-04
          -1.5166914071441828E-04   -1.6482446184585276E-04   -8.8619423397989344E-05
           8.3255811666550115E-06   -5.3065384629437046E-05   -7.5044278381370034E-05
           6.6403553283006468E-05    1.1865592146502559E-04   -1.6876922794117186E-04
          -3.6854176966024960E-04   -4.4916679521795895E-04   -7.2212204719687009E-05
          -1.2514834926182519E-04   -2.1658705550754414E-04    1.4279407553090925E-05
           1.5301292386956443E-04    7.8212466737122451E-05   -2.6042789655579080E-04
           1.1597437780929635E-04    1.3153166326415670E-04    1.9714489344866126E-05
          -2.7586288466893452E-05    4.9135802992107624E-05   -8.2847135187746985E-05
           1.7533037836713205E-04   -1.0200057778707619E-04   -1.5955910870252219E-05
           9.1305293496794235E-06   -1.7063363096405797E-04   -1.2704533408599278E-04
           2.0532414020003561E-04   -1.8523108331068192E-04    1.5576953260206490E-04
          -9.5082342048977137E-05    3.8898283928639522E-04    6.8143354600222220E-05
          -3.3468517686187509E-05    1.1413973594072650E-04    4.8372670606513032E-05
          -3.2167308794144928E-04   -6.7373694362483439E-05   -3.3440505798357250E-04
          -1.0565699375689523E-04   -1.8612919959403498E-04   -4.1185047194732476E-05
           3.0227443463943539E-04   -1.9476822660797056E-08   -4.0898192668766019E-05
           3.4132859750952049E-04   -7.5666618758315693E-05    3.1369871723681644E-04
           4.8774504496679342E-06    9.5432986768949785E-05    4.0463993791907804E-05
          -7.3525642131745900E-05   -1.1023344657285439E-04   -1.6990266178308085E-04
          -9.5305467321960097E-05    1.5924492797659512E-04    1.0050784054972782E-04
           2.9577992716599310E-04   -2.0302338272685264E-04   -3.8000268558128464E-06
           3.3426751493427201E-05    2.9960856876935988E-05    2.2957098671545361E-05
           2.1247046209565661E-04   -1.8773508816283108E-04   -7.1323934920757099E-05
          -4.5158839414410917E-04   -3.6143060089321441E-05   -6.1976176342652006E-04
           9.6706711088205208E-04   -4.1494673939214074E-04   -1.4270244721688841E-03
           7.4657709737391633E-04    7.4979183339331657E-04   -2.9716006598736990E-05
           1.1944835029750341E-03   -2.4887952170573214E-04   -4.6965328170177540E-04
           3.3415678176716170E-04   -4.4057529884235057E-04   -4.5347033640838718E-04
           1.1012796130008761E-03    2.9083917952592644E-04   -1.2194190254858615E-03
           2.2415342343899006E-04    1.5937251547952394E-03   -3.7781211910328306E-04
           1.0073465758284287E-03   -6.8157982680499597E-04    2.6183752025966923E-04
          -6.9769183518645947E-05    2.4841597080482443E-05   -1.3349984290284906E-04
          -6.5395783739779795E-04   -1.1729839040783451E-04    1.7209949832707933E-04
          -6.3912725033549958E-04   -9.4833908160409856E-04   -2.5753189731366410E-04
          -3.9187509730628648E-04   -2.4417797177150565E-04   -5.0822500048072544E-04
           2.8904185310754123E-04   -2.0455475311728076E-03   -7.4488003309195036E-04
           3.8533435933508164E-04   -1.5649598638711887E-03   -8.1999331592165253E-04
           6.6163782209663206E-04   -2.0530137991068296E-04   -4.7022778538606308E-04
          -4.8571775197050099E-05   -1.4283455067297967E-03    8.4970777265783572E-04
          -5.1040502071341256E-04    9.0124041076653210E-04   -4.3717828655404279E-04
           2.7962496775544654E-04    1.1112791909754724E-04   -5.6980553871414398E-04
          -1.5080494509736924E-03    7.3672779721591628E-04   -5.7541529120519165E-06
           2.4475429622064943E-04    9.7437756643591847E-04   -4.8339679945711675E-04
          -8.5981680085461432E-05    5.9512037270089736E-04   -4.8949501763697603E-05
          -6.8266467564146577E-04   -5.5567223334906978E-04    7.1350489603607303E-04
           4.8033714472197814E-05    6.5011279408840983E-04   -7.7943973950289581E-04
           8.0491911131360205E-05   -7.8343749756533030E-04    7.2435736497435989E-04
           2.5839724568562912E-04    7.5578985213903949E-05   -5.8507007760628298E-04
           3.2468632068276634E-04   -2.7324024726993039E-04    2.5249479693211088E-04
          -1.0539062839336020E-03    5.0616494373623101E-04    7.1049452486147014E-04
           8.0541579377679134E-04   -1.4428395474225079E-04   -9.1111624630142913E-04
          -9.3901405520966248E-05   -1.7440336409528986E-04   -6.6695306719107808E-04
          -5.9667439631238130E-04    2.1020879938467019E-03   -1.6524975841531570E-04
          -5.9413689338953053E-04   -1.8314218672246948E-04   -3.0878549943345044E-04
          -1.1299139620872425E-04   -1.9706794254038888E-04    5.4164798337544479E-04
           3.7379192865700503E-04   -2.2187500988054878E-04   -3.6215118742770119E-04
          -5.2111287107186807E-04    8.9091209792957417E-04   -5.6207250899466092E-04
           6.7919292601536867E-04    1.3343181457156278E-04   -5.4958333089593714E-04
          -5.0955912341371365E-05   -7.8811310901754272E-04    5.3306738435286911E-04
          -8.4615276367872478E-05   -4.3969810880584463E-04   -1.5061331385270906E-03
           1.9621493945567669E-04    7.0658921104165581E-04    7.9834173947339923E-04
          -3.1086266729702197E-04    7.4710976671329564E-04    4.9983161018569934E-04
          -7.7088036735916516E-04    8.7923123995276302E-04    4.4906439901147278E-04
           4.7843808738262878E-04    2.0885304150112692E-04    9.9081078439075196E-04
           2.7383478093067514E-04   -1.2076470146661874E-05    2.0312636572873324E-03
           2.2238602224319251E-04    4.5732113703389064E-04    2.0297495633685349E-03
          -1.3983314820628854E-04    6.4110517559054947E-04    2.3541721874544954E-04
           1.0634351964608298E-03   -8.1406755447813867E-04    2.5592615932659479E-04
           5.5764666822936341E-04   -2.4944020398094463E-04    1.0095491375976169E-03
           8.2355304837125587E-04    4.6265598283608701E-04    1.0873683440568017E-03
           1.0554542732570838E-03    1.4711843503794383E-03   -1.9257994642382729E-04
          -5.9301436638724812E-04    1.4338243179359709E-03   -1.0518598720247779E-03
           1.7009542630271144E-04   -2.7229621441019207E-04   -1.8275874432036276E-04
          -3.9794180045996683E-04    1.1377334676087978E-03    1.5111872074352628E-04
          -2.1010779017934271E-04    2.5908254733753808E-04    1.2965840741330211E-03
           5.7014687396656860E-04    4.3663748722600718E-04   -1.4622705924947275E-04
           2.7451658005935416E-04   -1.1055104188266566E-04   -2.7011911346376012E-04
          -1.5488517943755907E-03   -4.8268639176548189E-04    1.0661735519777455E-03
           1.1223093818716660E-04    6.1336181166099209E-04   -2.4337739021052513E-04
          -8.4642821009255358E-04    2.7314900747623451E-04    4.4966165016899131E-04
          -9.0281864259723259E-04    4.6471968391722211E-04   -2.6632644267889603E-04
          -1.1909602595118853E-03    3.2546725716938552E-05   -5.5177771584734788E-05
           2.6878284879005182E-04   -1.1019214430718768E-03    6.7804196597002207E-04
           3.1926309392958554E-04    1.0177813137909977E-03   -3.0847823993226974E-04
          -4.2284471692087121E-04    4.3959034012485006E-04   -8.2960000478158138E-04
           4.5763012015822147E-04   -7.2873611064486828E-04   -1.9810871958445144E-04
          -2.5435809608938406E-04   -2.9857092394509107E-04    4.0812967129305838E-04
          -1.7369381695789643E-04    6.5701533358742672E-04    1.2674523034662856E-03
           2.5615963330832261E-04   -1.0911306643951907E-06    1.1679000472447449E-03
          -1.6308109754328679E-05    1.3149337650733386E-03    1.0407917757626044E-03
           8.9763869717052083E-04   -3.3652501428400817E-04    5.8254652392127190E-04
           1.0486726919134762E-03    1.4387708621545957E-04   -1.3227328924819445E-03
          -7.1280006662566070E-04    3.7576614692388385E-04   -7.8229807968954669E-04
          -4.9597517499442244E-05    2.0943390448726647E-05   -3.3577883352205407E-04