 # Version information for this restart file 
 # current date 2023-07-20 13:46:44.873
 # current working dir /mnt/lustre/indy2lfs/work/tc047/tc047/mrnuff-cirrus/cp2k
 # Program compiled at                              Thu Jun 30 12:29:55 BST 2022
 # Program compiled on                                             cirrus-login3
 # Program compiled for                                             Cirrus-intel
 # Source code revision number                                       git:e635599
 &GLOBAL
   PRINT_LEVEL  LOW
   PROJECT_NAME H2O-64
   RUN_TYPE  MD
 &END GLOBAL
 &MOTION
   &MD
     ENSEMBLE  NVE
     STEPS  10
     TIMESTEP     4.9999999999999994E-01
     STEP_START_VAL  10
     TIME_START_VAL     4.9999999999999982E+00
     ECONS_START_VAL    -1.1007588181102626E+03
     TEMPERATURE     3.0000000000000000E+02
     &AVERAGES  T
       &RESTART_AVERAGES
         ITIMES_START  1
         AVECPU     3.9799545281683093E+00
         AVEHUGONIOT     0.0000000000000000E+00
         AVETEMP_BARO     0.0000000000000000E+00
         AVEPOT    -1.1010668160173043E+03
         AVEKIN     3.0070034549343738E-01
         AVETEMP     3.3142598856015275E+02
         AVEKIN_QM     0.0000000000000000E+00
         AVETEMP_QM     0.0000000000000000E+00
         AVEVOL     1.2909542132085598E+04
         AVECELL_A     2.3458682268415796E+01
         AVECELL_B     2.3458682268415796E+01
         AVECELL_C     2.3458682268415796E+01
         AVEALPHA     9.0000000000000000E+01
         AVEBETA     9.0000000000000000E+01
         AVEGAMMA     9.0000000000000000E+01
         AVE_ECONS    -1.0896372474910351E+01
         AVE_PRESS     0.0000000000000000E+00
         AVE_PXX     0.0000000000000000E+00
       &END RESTART_AVERAGES
     &END AVERAGES
   &END MD
 &END MOTION
 &FORCE_EVAL
   METHOD  QS
   &DFT
     BASIS_SET_FILE_NAME GTH_BASIS_SETS
     POTENTIAL_FILE_NAME POTENTIAL
     &SCF
       SCF_GUESS  ATOMIC
       &OT  T
         MINIMIZER  DIIS
       &END OT
       &PRINT
         &RESTART  OFF
         &END RESTART
       &END PRINT
     &END SCF
     &QS
       EPS_DEFAULT     9.9999999999999998E-13
       EXTRAPOLATION  PS
       EXTRAPOLATION_ORDER  3
     &END QS
     &MGRID
       CUTOFF     2.8000000000000000E+02
       REL_CUTOFF     3.0000000000000000E+01
     &END MGRID
     &XC
       DENSITY_CUTOFF     1.0000000000000000E-10
       GRADIENT_CUTOFF     1.0000000000000000E-10
       TAU_CUTOFF     1.0000000000000000E-10
       &XC_FUNCTIONAL  NO_SHORTCUT
         &PADE  T
         &END PADE
       &END XC_FUNCTIONAL
     &END XC
   &END DFT
   &SUBSYS
     &CELL
       A     1.2413800000000002E+01    0.0000000000000000E+00    0.0000000000000000E+00
       B     0.0000000000000000E+00    1.2413800000000002E+01    0.0000000000000000E+00
       C     0.0000000000000000E+00    0.0000000000000000E+00    1.2413800000000002E+01
       MULTIPLE_UNIT_CELL  1 1 1
     &END CELL
     &COORD
O    1.2265692089483846E+01    1.3554390129941707E+00    1.0875425741210375E+01
O    6.4523125712781573E+00    3.7059030017229699E+00    8.6472703373291910E+00
O    7.7679434805503017E-02    2.1684363409617986E+00    8.2608499727947944E+00
O    1.2086328917682305E+01    2.6383236471457145E+00    2.1708319631147841E+00
O    1.2290563434792588E+01    4.1705987030844449E+00    1.2102197401500980E+01
O    7.2035546534507962E+00    9.4146440982930513E-01    4.7596753308529394E+00
O    8.3332259924712009E+00    7.2077559238209030E+00    4.6827252174469187E+00
O    1.2331820354972782E+01    1.1521085584601192E+01    8.0815267568454328E+00
O    3.2742305248728507E+00    4.4591006237002020E+00    9.1745323461746189E+00
O    2.8601657947012082E+00    3.7871321994318503E+00    6.5410904120533671E+00
O    1.3797135980522239E+00    6.3917883108529798E+00    5.6509499049335687E-01
O    1.8717778176467510E+00    8.6859327223320903E+00    2.0908475002934273E+00
O    3.7724126920716232E+00    1.2107291686118606E+01    8.6205990988999783E+00
O    6.4253612010426089E+00    3.6667844669335690E+00    2.7875787966085750E+00
O    1.9996801569167435E+00    1.8525818618606038E+00    4.8671305057775376E+00
O    8.2870264289442588E+00    2.4221945186201057E+00    6.9417301194041130E+00
O    5.7524965525743363E+00    3.3354063225406585E+00    1.2486444073906750E+01
O    1.1313041873264233E+01    5.6568394091371665E+00    2.2481538681309909E+00
O    4.2889086332745689E+00    2.1146774663677426E+00    1.0586400462686868E+01
O    5.3988008779579379E+00    3.3584215761666609E+00    5.4859980676065927E+00
O    6.5093803283315603E+00    1.1870555907452625E+01    7.1448610258285628E-01
O    3.2525927590517605E+00    2.3434818290720849E+00    2.4132514479859934E+00
O    8.0086796499285402E+00    6.3565335203087869E+00    7.4977752039610657E+00
O    5.9288585788256425E+00    6.5082801666042887E+00    1.2195796701642529E+01
O    1.0610385294795652E+01    1.1861264429738505E+01    1.2200574174939975E+01
O    9.3403690756569109E+00    3.6890996107165113E+00    3.5273423653475087E+00
O    1.1111278086578777E+00    5.7890355206451520E+00    6.6473009501981721E+00
O    8.0194995343334643E+00    3.3269739508473313E+00    1.0869758841489828E+01
O    1.2376084676796182E+01    9.6748049821030389E+00    1.1772442429127569E+01
O    4.2098962719503259E+00    7.0914037241391439E+00    8.1403049780540382E+00
O    3.7839656891275073E+00    8.2290488153630594E+00    1.1585038748792668E+01
O    1.1076296436002760E+01    4.5429033328725383E+00    7.8327522122956523E+00
O    1.0435269965490466E+01    8.4217711221835341E+00    1.0328413587523251E+00
O    1.9828015281273366E+00    6.4005825276165478E+00    1.0353823655978411E+01
O    4.7041682767467954E+00    5.6227133611208646E-01    5.6097237226911192E+00
O    8.7178718108892870E+00    1.2242115811187329E+01    8.0976567639231316E+00
O    2.6327341025095095E+00    1.0520521873272626E+01    8.2905623926724514E-02
O    7.2399931187466260E+00    1.0511642196931598E+01    4.2432664330030327E+00
O    2.2807064781618829E+00    2.7612056427327886E-01    1.0807250569989165E+01
O    8.8632061138829208E+00    9.4642072500213603E-01    1.3400856795972151E+00
O    1.9443088048743893E+00    8.0893935868695088E+00    7.5355059867710725E+00
O    9.6598248299586000E+00    8.0355046451625984E+00    9.8565400345211440E+00
O    1.0903669851584420E+01    8.3307153998976435E+00    6.4773146916028450E+00
O    3.5124567442237553E+00    4.8693650210821682E+00    1.5451764009708020E+00
O    7.9775830453592036E+00    8.6026723333304371E+00    1.2050849513770656E+01
O    8.3694035479504532E+00    1.0019371052442843E+01    6.6836141760226511E+00
O    5.6546743218579056E+00    6.0810664230945140E+00    5.5283846573827908E+00
O    1.1742547847645376E+01    1.6241840639033960E+00    5.0859575162073920E+00
O    9.7585719615142210E+00    9.8110347715520607E+00    3.5364867774941025E+00
O    3.9627876574399634E+00    1.0548914651573941E+01    4.6848634346389773E+00
O    9.0110847254973470E-01    6.3699180308684920E+00    4.0614677068442688E+00
O    6.8825857356121443E+00    6.4084220847946698E+00    2.5046902581441275E+00
O    3.8180799995398385E+00    6.6391276583280590E+00    3.7786506828597193E+00
O    6.5639457974899926E+00    8.3081696931558877E+00    8.8142644496198024E+00
O    9.7792965800926979E+00    1.3440562766330852E-01    3.8518038249085018E+00
O    4.1040770115656962E+00    1.1645978558721414E+01    2.2167390496174346E+00
O    5.3225394392112824E+00    8.7370879819811531E+00    2.7520568939068788E+00
O    1.0008064086737257E+01    5.3735087324373811E+00    5.3757728940150047E+00
O    1.2260297782908742E+01    8.6464340629358372E+00    3.9709777917870621E+00
O    2.3431345497116967E+00    1.0747243885368619E+01    6.8128217267253861E+00
O    7.0016612916654228E+00    6.6240597665992174E-01    1.0534341561687866E+01
O    5.1725047982212438E+00    1.0218495319125282E+01    1.0357205957141197E+01
O    1.1186316801594362E+01    5.8851524495734795E+00    1.0299193203866011E+01
O    1.2277001782589700E+01    8.9569716794262781E+00    9.0707884188586991E+00
H    1.2357840653884050E+01    2.3335995753227841E+00    1.1187202568865933E+01
H    1.1946181003855285E+01    1.5338243304136077E+00    9.8820686313882451E+00
H    5.5871540557008528E+00    3.4492983737415619E+00    9.0442905792557546E+00
H    6.8930493554877108E+00    3.0239782285788528E+00    7.9852283560211301E+00
H   -1.4374297116940876E-01    1.5098214846057054E+00    7.5263531243335926E+00
H   -3.8865416711615453E-01    3.0530974755007820E+00    7.9298823362657558E+00
H    1.2176354233154623E+01    2.9746344065071493E+00    1.1924463434416690E+00
H    1.2991627169715175E+01    2.9143170210550031E+00    2.5155346727351215E+00
H    1.1517585159653777E+01    4.3255122446515459E+00    1.1434691026735443E+01
H    1.2784953658522573E+01    5.0635466714143114E+00    1.2040055000815430E+01
H    6.9671401310537897E+00    1.7387343976988343E+00    4.1849967664920591E+00
H    6.2296009063344489E+00    6.8946782722619027E-01    5.1579113656943996E+00
H    7.7273594948729185E+00    7.2216808380981137E+00    5.4888761780281756E+00
H    9.1691701765456592E+00    6.6296086344970835E+00    4.9460727574875794E+00
H    1.2846883768257223E+01    1.1781070688350528E+01    8.9005192602383953E+00
H    1.1983330930255407E+01    1.0563456761595813E+01    8.3168613221536436E+00
H    3.5249173108191041E+00    3.8402074967256543E+00    9.9510006399907454E+00
H    2.4297337650179447E+00    4.9330989925198248E+00    9.5245628999126666E+00
H    2.1731627523296129E+00    4.5583640086441193E+00    6.3013579985291885E+00
H    2.8563500932213701E+00    3.8576048156121323E+00    7.5841394106041911E+00
H    1.1402120515025223E+00    7.1967347480537898E+00    1.1594244541631153E+00
H    2.2451038169246691E+00    6.0044688738680270E+00    1.0028737587414218E+00
H    2.8159635337995423E+00    8.9701748198779949E+00    2.2995199891603919E+00
H    1.3289544665070165E+00    8.9939926467760962E+00    2.8983257079449269E+00
H    4.4550218369060648E+00    1.1540339425003710E+01    9.1644203320318525E+00
H    3.0505860859908513E+00    1.2474023132570290E+01    9.2862357274710323E+00
H    5.8591510063950043E+00    3.4580809397757055E+00    3.6616773633303876E+00
H    5.8328342793248433E+00    3.4003555439701310E+00    1.9823495664216320E+00
H    9.5573469725981841E-01    1.6451477306437234E+00    4.8407733836329498E+00
H    2.2282991647310300E+00    2.4813299829874138E+00    5.6872650230026434E+00
H    8.4431290012364286E+00    1.6050270153557329E+00    7.5442513472480783E+00
H    8.0660702671737905E+00    2.0137128293839401E+00    6.0338191030228483E+00
H    5.2179579256216551E+00    2.8944435585811092E+00    1.1676379626019949E+01
H    6.6808372388705974E+00    3.4137338960717378E+00    1.1974227321955089E+01
H    1.0787628803145061E+01    6.5181395670623372E+00    2.0987991922624167E+00
H    1.1679773573100546E+01    5.3602522151471694E+00    1.3423877172505856E+00
H    3.4353203684190117E+00    1.5422281194349108E+00    1.0899348788954493E+01
H    4.8360131199375527E+00    1.4266306188294182E+00    1.0089887937303487E+01
H    4.3860802582005958E+00    3.3639520802572580E+00    5.6883523933786844E+00
H    5.6851424648151214E+00    4.3694414775810699E+00    5.5473743673644007E+00
H    6.2905172776224303E+00    1.1824099733750796E+01    1.7188529435633768E+00
H    5.6254822935025155E+00    1.2118652077616103E+01    3.2827489265271814E-01
H    3.5448338646072828E+00    1.3905272139795932E+00    2.1815170599100582E+00
H    2.6082617908446100E+00    2.2011793682002190E+00    3.2448585926827800E+00
H    7.1214310944134169E+00    5.8746986475787368E+00    7.5240902705276342E+00
H    8.6555160452204021E+00    5.7349833608736258E+00    7.0296645633642330E+00
H    6.0004465275666341E+00    5.6511979030146309E+00    1.1673025686979752E+01
H    6.2576534574146763E+00    6.3249880564331074E+00    1.3168261180251784E+01
H    1.1110393485507924E+01    1.2636559250997603E+01    1.1695509562619209E+01
H    1.0264574453193523E+01    1.2297166054266668E+01    1.3044673119310175E+01
H    9.9063257583760098E+00    4.0523254539291012E+00    2.7328096710812795E+00
H    8.5320976562310360E+00    3.4662435851508855E+00    2.9418258347992681E+00
H    1.4549325922354428E+00    6.6684406032659345E+00    7.1063381287429541E+00
H    1.0013233336704299E+00    6.1758231958594791E+00    5.6553319488928970E+00
H    7.9834584102612354E+00    3.6965662970351798E+00    9.9295362401113056E+00
H    8.0702893407909482E+00    2.3148727995365723E+00    1.0750118168091110E+01
H    1.1741851247337566E+01    1.0457041172522597E+01    1.2099135806994104E+01
H    1.2145140467197928E+01    8.9346530857758903E+00    1.2412210742862250E+01
H    3.3373535314761580E+00    7.6121200308660502E+00    7.8531045761946432E+00
H    3.8438071109325240E+00    6.2417161568838013E+00    8.6114175129823192E+00
H    3.1132077807645975E+00    7.6196920981174765E+00    1.1070308623799747E+01
H    4.4752997918981565E+00    7.6309327249728884E+00    1.2076616644958902E+01
H    1.1595109347939623E+01    4.9846383472192821E+00    7.0588447442731406E+00
H    1.0300198428128613E+01    4.1359917521743377E+00    7.3179795841161983E+00
H    1.0066803629045037E+01    8.9449101926887487E+00    1.8648409458422979E+00
H    9.5721275817991387E+00    8.2654871620117394E+00    4.9820470823252300E-01
H    1.3188214514384657E+00    6.6901027276294478E+00    9.6503048603172630E+00
H    1.4021624816960929E+00    6.4512365186864962E+00    1.1227722789147411E+01
H    4.1225373888742061E+00    1.3301382656579777E+00    5.2661059713500942E+00
H    4.6863100279909125E+00    6.4323888153891284E-01    6.6181558656211203E+00
H    9.4703533710558769E+00    1.2334177792059830E+01    8.7409520154271334E+00
H    8.8486737260988377E+00    1.1353175343936391E+01    7.5414016813712292E+00
H    1.7346635260611654E+00    1.0023247752457339E+01    1.4531246290804534E-01
H    3.3374323737186926E+00    9.8445600332822583E+00   -2.3573946363422338E-01
H    7.0505799823406861E+00    1.1506005604268189E+01    4.1255571139610776E+00
H    6.4716019298292657E+00    9.9354966266943467E+00    3.7910911532790035E+00
H    1.3268589592367206E+00    5.8377393430223046E-01    1.1128929736799176E+01
H    2.5223619020798944E+00   -5.4513600115405492E-01    1.1460522258350961E+01
H    8.7695024945572158E+00    1.8730405160137655E+00    9.9029984538962867E-01
H    8.0908940305267372E+00    3.3984351975189403E-01    9.9164118000018386E-01
H    1.1203607709235686E+00    8.3716512006961352E+00    8.1792323344821991E+00
H    2.0883187077771534E+00    8.9941496096239835E+00    7.0138877035400045E+00
H    8.9092455661178178E+00    7.7938840102049101E+00    9.2222118549467265E+00
H    9.0650442925877552E+00    8.4492400512124419E+00    1.0614283870981868E+01
H    1.0125293357176480E+01    7.6972294325251562E+00    6.4507709233869308E+00
H    1.0499855152536247E+01    9.1992705817143392E+00    6.1555311709840419E+00
H    3.4971231604231976E+00    3.9586904012080564E+00    2.1122844778207757E+00
H    4.0584146620663573E+00    4.5845739999393347E+00    7.4299547661125109E-01
H    7.3547300979715500E+00    9.3907717765822660E+00    1.2034662471094340E+01
H    7.3341917810681565E+00    7.7711469163735147E+00    1.2054219542750003E+01
H    7.8271815569081324E+00    1.0161811172290419E+01    5.7814619639484457E+00
H    7.7120113817881544E+00    9.5092512996369418E+00    7.2843726304680843E+00
H    5.2899463871868342E+00    6.4889429596072112E+00    6.3929757321023741E+00
H    4.8678252868833605E+00    6.3175211180854012E+00    4.8313586361443379E+00
H    1.1521862541305689E+01    2.1923283626800885E+00    4.2496614328174607E+00
H    1.1222791846958119E+01    7.8414795598389753E-01    4.7829538343864675E+00
H    8.8119942350203715E+00    9.6778779613706476E+00    3.9666686831528359E+00
H    9.9342844970883775E+00    1.0814156988790112E+01    3.7816372858608092E+00
H    3.1082289528955536E+00    1.0546326407174220E+01    5.2868803913855862E+00
H    4.3132584907108029E+00    1.1455620653057748E+01    5.0610780320734108E+00
H    4.2220406784305442E-01    7.3045102192442934E+00    3.8013135649932144E+00
H    2.9772343931263640E-01    5.7724401932037450E+00    3.4526995513600962E+00
H    7.5860591209731743E+00    6.5678847601542856E+00    3.2915836809340595E+00
H    6.6758385347277809E+00    5.3831754309180297E+00    2.5200133494029968E+00
H    3.8532534172197530E+00    6.3060046348699847E+00    2.8123783749706455E+00
H    2.7953246440736534E+00    6.5485847389774543E+00    3.9537741358609164E+00
H    5.5553176437611569E+00    8.0120599991630854E+00    8.6583941104706597E+00
H    6.9993930795495602E+00    7.4780238970675006E+00    8.4104344163932492E+00
H    9.5571588990616601E+00    7.3280446145753875E-01    3.0174818797268208E+00
H    8.9237164310790522E+00    1.3437510586265508E-01    4.4076447871974453E+00
H    3.8482457315693761E+00    1.1174438455170359E+01    1.3441470566655243E+00
H    3.9626056228591562E+00    1.0964278466897005E+01    3.0102551897942802E+00
H    5.9449661422366162E+00    7.8891857853084488E+00    2.7995741535960899E+00
H    4.7652120121288908E+00    8.7229381074886199E+00    3.5906717261647114E+00
H    1.0905815782848897E+01    5.5302201800699020E+00    4.9342869455826293E+00
H    9.5033245323302520E+00    4.6732708376732832E+00    4.7171193166485921E+00
H    1.1491942104116399E+01    9.0018887406798047E+00    3.3983649908377727E+00
H    1.1959903629041634E+01    8.7851547644287518E+00    4.9401026898667331E+00
H    2.9404439844274779E+00    1.1333326721638805E+01    7.4881123877730111E+00
H    1.3993518978820425E+00    1.1120275827043235E+01    6.8063456551222661E+00
H    7.2181951384373848E+00    1.2809608485364934E-01    9.7032371258679024E+00
H    7.1648660378584133E+00    1.0772078745163047E-01    1.1367500988399893E+01
H    4.8113412051059754E+00    9.3237474535604843E+00    1.0837702423611860E+01
H    6.0816481698035254E+00    9.8060697913092731E+00    1.0186927365163584E+01
H    1.0565212262639484E+01    6.7306908548566717E+00    1.0314443980527590E+01
H    1.1239043366237158E+01    5.5938377372090473E+00    9.3143651163974397E+00
H    1.2188456954751205E+01    8.9927460848960941E+00    1.0127821223536264E+01
H    1.1415764242459474E+01    8.6329965781004017E+00    8.6365688433564518E+00
     &END COORD
     &VELOCITY
           2.4353373553020067E-04   -1.2006097602639653E-04    8.6380096426238599E-05
           5.1311970178194574E-05   -1.2708266200296307E-06   -1.4048482609561542E-05
          -1.3298767757342610E-04   -8.3910828183944981E-05   -1.7227772179753947E-04
           3.2311111387288319E-04   -2.8974228281149900E-04    2.2815855771141173E-04
           3.6807112799838688E-04   -1.6540691871867126E-04    8.2168021720544800E-05
           8.6843810078659692E-05   -1.6733145785149901E-04    2.3233906169628149E-04
          -1.9144732815367220E-04    3.6490306371947517E-05    1.7692428816808812E-04
          -2.7339212137215485E-04   -2.0181330312737952E-06   -2.5185283188711155E-04
          -2.9114797156612427E-04    1.4202524657009886E-04   -9.4207613535911245E-05
           4.9604684382688306E-05    1.9764986075530795E-04   -3.9675655900721779E-05
          -1.0338266296063449E-04    2.5533554886949286E-04   -1.7753567723223813E-04
           1.2393271803142432E-04   -5.1522817963102950E-05    2.4869105054712215E-04
           3.7171385611940600E-05    1.3912087635314032E-04   -2.6001104941690307E-04
          -9.0584380439955281E-05   -5.4256969623737886E-05    1.3571849163645957E-04
          -1.3532069033443406E-05    2.9312535024507224E-04   -1.1035216194710593E-04
           3.4365663856463440E-04    1.2592891247387717E-04    1.2984947778350980E-04
           3.1061310689042269E-05   -2.1491061234662470E-04    1.3642911352202780E-04
          -1.1197980598608323E-04    8.8708519144728405E-05    8.1551359031496189E-05
           7.2553977151792011E-05   -7.4882564047054010E-05   -3.7593240427965572E-05
          -3.9311008768745479E-05    7.7794970775811362E-05   -4.9503853884466298E-05
           1.3050850736227645E-04    3.2997372841604523E-05    2.3384938882121156E-04
          -2.3506710107472679E-04   -1.3038351983291321E-04   -7.8872779760102394E-05
           2.2656471395873746E-04    3.8984618358734644E-06   -1.0674489559860903E-04
          -4.8910812396732331E-04   -8.8250996373498007E-05    4.1168871694008150E-05
          -2.3516505104469385E-04    3.0141522873815190E-05   -4.3307021530870115E-05
           2.3874077440334826E-04    1.6479626533178835E-04   -6.5961174431108793E-06
           2.1570400443075749E-06   -3.6687604474106304E-04    1.9056449024560761E-05
           1.5263290745838696E-04   -4.5423683352852002E-05   -4.7828240981074542E-05
          -2.4361660474361753E-04   -1.5799538490246558E-04    1.4701044899613377E-04
          -4.6332302280137325E-05    6.6958418739674017E-05   -1.4093723621217899E-04
           7.0402526347682109E-05    1.4787938508566397E-04    2.3294646136711030E-04
          -1.0541845847194105E-04    9.0959878372040597E-05    1.4239486316527722E-04
           3.9447066267581294E-04    6.7697585284121013E-05    1.1078543439995736E-04
          -7.7642050404590196E-05   -1.2536442818064089E-04   -1.9896428320004936E-04
           4.0834731830551024E-04    1.4767279245052610E-04    2.0697580190756907E-05
          -2.3059415805121196E-04   -1.2069261926304006E-04    1.1528847271841199E-04
          -2.2453224222967452E-04    3.2508315209598407E-04   -1.1011175869249158E-04
          -2.5223464560374153E-05    3.9102949516768147E-04    1.6353834116257840E-04
           2.2717843314106714E-05   -6.2765751651598933E-06    4.4671040026147964E-05
          -2.2749659830974527E-04   -6.9576305495700717E-06    6.3788388337762236E-05
          -7.5841302719999317E-05    8.7087799013139874E-05   -2.6939094015563606E-04
          -1.5166914072017548E-04   -1.6482446184802485E-04   -8.8619423401409121E-05
           8.3255811683458366E-06   -5.3065384630437500E-05   -7.5044278374671237E-05
           6.6403553282860195E-05    1.1865592146433735E-04   -1.6876922794145817E-04
          -3.6854176965750424E-04   -4.4916679521479601E-04   -7.2212204721070749E-05
          -1.2514834926100190E-04   -2.1658705550816563E-04    1.4279407553203411E-05
           1.5301292386891725E-04    7.8212466735004001E-05   -2.6042789655631582E-04
           1.1597437780985570E-04    1.3153166326513208E-04    1.9714489346828363E-05
          -2.7586288469368269E-05    4.9135802992827691E-05   -8.2847135186329214E-05
           1.7533037836794978E-04   -1.0200057778754737E-04   -1.5955910869398471E-05
           9.1305293487969015E-06   -1.7063363096611489E-04   -1.2704533408501784E-04
           2.0532414019959312E-04   -1.8523108330898252E-04    1.5576953260088187E-04
          -9.5082342048871400E-05    3.8898283928633245E-04    6.8143354601992316E-05
          -3.3468517686116982E-05    1.1413973594190242E-04    4.8372670608770151E-05
          -3.2167308794059575E-04   -6.7373694363213717E-05   -3.3440505798281643E-04
          -1.0565699375530234E-04   -1.8612919959428667E-04   -4.1185047195342631E-05
           3.0227443463983248E-04   -1.9476823622029527E-08   -4.0898192669452753E-05
           3.4132859751112354E-04   -7.5666618757331034E-05    3.1369871723644673E-04
           4.8774504477164847E-06    9.5432986766150700E-05    4.0463993791215514E-05
          -7.3525642131608016E-05   -1.1023344657361145E-04   -1.6990266178305353E-04
          -9.5305467321229019E-05    1.5924492797639314E-04    1.0050784054696576E-04
           2.9577992716476383E-04   -2.0302338272291121E-04   -3.8000268558217869E-06
           3.3426751499207300E-05    2.9960856877524920E-05    2.2957098675099891E-05
           2.1247046209620928E-04   -1.8773508816320345E-04   -7.1323934921960631E-05
          -4.5158839413951280E-04   -3.6143060081132976E-05   -6.1976176342167747E-04
           9.6706711087644415E-04   -4.1494673938579908E-04   -1.4270244721892925E-03
           7.4657709736976221E-04    7.4979183340099717E-04   -2.9716006616120600E-05
           1.1944835029861589E-03   -2.4887952170378036E-04   -4.6965328169697320E-04
           3.3415678177630304E-04   -4.4057529884231913E-04   -4.5347033641980047E-04
           1.1012796130056553E-03    2.9083917952814114E-04   -1.2194190254864509E-03
           2.2415342343012052E-04    1.5937251548207140E-03   -3.7781211910916756E-04
           1.0073465758416980E-03   -6.8157982680535419E-04    2.6183752026208136E-04
          -6.9769183567476462E-05    2.4841597099334469E-05   -1.3349984293905610E-04
          -6.5395783738211942E-04   -1.1729839036917134E-04    1.7209949835495379E-04
          -6.3912725033836741E-04   -9.4833908161771419E-04   -2.5753189732059822E-04
          -3.9187509730364639E-04   -2.4417797176942393E-04   -5.0822500047604472E-04
           2.8904185309803923E-04   -2.0455475311583057E-03   -7.4488003307099761E-04
           3.8533435936504996E-04   -1.5649598638773697E-03   -8.1999331591059356E-04
           6.6163782209935232E-04   -2.0530137992189274E-04   -4.7022778537544440E-04
          -4.8571775202673815E-05   -1.4283455067324248E-03    8.4970777264760735E-04
          -5.1040502070983534E-04    9.0124041075985201E-04   -4.3717828654900792E-04
           2.7962496773600675E-04    1.1112791910447683E-04   -5.6980553870428620E-04
          -1.5080494509706090E-03    7.3672779722942739E-04   -5.7541529137753643E-06
           2.4475429621196535E-04    9.7437756642968453E-04   -4.8339679943490074E-04
          -8.5981680087372664E-05    5.9512037269380343E-04   -4.8949501756721683E-05
          -6.8266467563873044E-04   -5.5567223334342651E-04    7.1350489602818492E-04
           4.8033714482252271E-05    6.5011279411166542E-04   -7.7943973949992857E-04
           8.0491911115064131E-05   -7.8343749754991273E-04    7.2435736497865029E-04
           2.5839724569633540E-04    7.5578985199964606E-05   -5.8507007759278228E-04
           3.2468632066618699E-04   -2.7324024725744212E-04    2.5249479693815959E-04
          -1.0539062839316248E-03    5.0616494373683252E-04    7.1049452486233306E-04
           8.0541579377301127E-04   -1.4428395473820650E-04   -9.1111624630415579E-04
          -9.3901405524779251E-05   -1.7440336409830845E-04   -6.6695306718941969E-04
          -5.9667439631164100E-04    2.1020879938559119E-03   -1.6524975841236369E-04
          -5.9413689338900491E-04   -1.8314218672952026E-04   -3.0878549942207098E-04
          -1.1299139621793547E-04   -1.9706794254708903E-04    5.4164798336681227E-04
           3.7379192865139629E-04   -2.2187500988938476E-04   -3.6215118743139940E-04
          -5.2111287106660427E-04    8.9091209793262295E-04   -5.6207250900080791E-04
           6.7919292602505136E-04    1.3343181456992219E-04   -5.4958333089561123E-04
          -5.0955912342300953E-05   -7.8811310901433370E-04    5.3306738435131848E-04
          -8.4615276361025660E-05   -4.3969810880489335E-04   -1.5061331385172597E-03
           1.9621493945593110E-04    7.0658921103627914E-04    7.9834173947541801E-04
          -3.1086266729354970E-04    7.4710976671161090E-04    4.9983161017283647E-04
          -7.7088036735368777E-04    8.7923123996984950E-04    4.4906439901508665E-04
           4.7843808738190453E-04    2.0885304148238234E-04    9.9081078440400503E-04
           2.7383478091490851E-04   -1.2076470155405670E-05    2.0312636572819712E-03
           2.2238602224743331E-04    4.5732113704035281E-04    2.0297495633781254E-03
          -1.3983314820589573E-04    6.4110517559125724E-04    2.3541721874926989E-04
           1.0634351964400597E-03   -8.1406755448400930E-04    2.5592615930934384E-04
           5.5764666823458395E-04   -2.4944020396852401E-04    1.0095491375833935E-03
           8.2355304836052108E-04    4.6265598282632442E-04    1.0873683440554961E-03
           1.0554542732506137E-03    1.4711843503833267E-03   -1.9257994643582331E-04
          -5.9301436637134526E-04    1.4338243179465851E-03   -1.0518598720285226E-03
           1.7009542630648378E-04   -2.7229621441242401E-04   -1.8275874432730066E-04
          -3.9794180045924307E-04    1.1377334676052286E-03    1.5111872074839280E-04
          -2.1010779018873732E-04    2.5908254733814936E-04    1.2965840741205449E-03
           5.7014687398086771E-04    4.3663748723504037E-04   -1.4622705924455693E-04
           2.7451658005639255E-04   -1.1055104188164937E-04   -2.7011911347701748E-04
          -1.5488517943911988E-03   -4.8268639176939716E-04    1.0661735519858385E-03
           1.1223093818000161E-04    6.1336181166334752E-04   -2.4337739021266440E-04
          -8.4642821009751098E-04    2.7314900748045976E-04    4.4966165017557903E-04
          -9.0281864258717954E-04    4.6471968390929686E-04   -2.6632644267017867E-04
          -1.1909602595190898E-03    3.2546725726465450E-05   -5.5177771587353259E-05
           2.6878284877820784E-04   -1.1019214431020198E-03    6.7804196597527969E-04
           3.1926309391001580E-04    1.0177813137761363E-03   -3.0847823992602127E-04
          -4.2284471692137645E-04    4.3959034012383872E-04   -8.2960000477564700E-04
           4.5763012014505238E-04   -7.2873611065343358E-04   -1.9810871956101424E-04
          -2.5435809608464848E-04   -2.9857092395247297E-04    4.0812967128433646E-04
          -1.7369381695170753E-04    6.5701533357718329E-04    1.2674523034566752E-03
           2.5615963330663239E-04   -1.0911306589475356E-06    1.1679000472490757E-03
          -1.6308109791532481E-05    1.3149337651009643E-03    1.0407917757065145E-03
           8.9763869715025937E-04   -3.3652501427028982E-04    5.8254652395362796E-04
           1.0486726919051673E-03    1.4387708622353964E-04   -1.3227328924899835E-03
          -7.1280006662281651E-04    3.7576614693150828E-04   -7.8229807968342149E-04
          -4.9597517519670794E-05    2.0943390439620019E-05   -3.3577883353871050E-04