 # Version information for this restart file 
 # current date 2023-08-03 13:47:56.123
 # current working dir /mnt/lustre/indy2lfs/work/tc047/tc047/mrnuff-cirrus/cp2k/nuff-benchmarks/H2O-64-4node
 # Program compiled at                               Wed Aug 2 15:51:15 BST 2023
 # Program compiled on                                             cirrus-login2
 # Program compiled for                                             Cirrus-intel
 # Source code revision number                                       git:d8d7100
 &GLOBAL
   PRINT_LEVEL  LOW
   PROJECT_NAME H2O-64
   RUN_TYPE  MD
 &END GLOBAL
 &MOTION
   &MD
     ENSEMBLE  NVE
     STEPS  10
     TIMESTEP     4.9999999999999994E-01
     STEP_START_VAL  10
     TIME_START_VAL     4.9999999999999982E+00
     ECONS_START_VAL    -1.1007623251464909E+03
     TEMPERATURE     3.0000000000000000E+02
     &AVERAGES  T
       &RESTART_AVERAGES
         ITIMES_START  1
         AVECPU     2.9781243076082320E+00
         AVEHUGONIOT     0.0000000000000000E+00
         AVETEMP_BARO     0.0000000000000000E+00
         AVEPOT    -1.1010668154404118E+03
         AVEKIN     3.0069890126034132E-01
         AVETEMP     3.3142439675492636E+02
         AVEKIN_QM     0.0000000000000000E+00
         AVETEMP_QM     0.0000000000000000E+00
         AVEVOL     1.2909542132085600E+04
         AVECELL_A     2.3458682268415796E+01
         AVECELL_B     2.3458682268415796E+01
         AVECELL_C     2.3458682268415796E+01
         AVEALPHA     9.0000000000000000E+01
         AVEBETA     9.0000000000000000E+01
         AVEGAMMA     9.0000000000000000E+01
         AVE_ECONS    -5.7036316531756954E+00
         AVE_PRESS     0.0000000000000000E+00
         AVE_PXX     0.0000000000000000E+00
       &END RESTART_AVERAGES
     &END AVERAGES
   &END MD
 &END MOTION
 &FORCE_EVAL
   METHOD  QS
   &DFT
     BASIS_SET_FILE_NAME GTH_BASIS_SETS
     POTENTIAL_FILE_NAME POTENTIAL
     &SCF
       SCF_GUESS  ATOMIC
       &OT  T
         MINIMIZER  DIIS
       &END OT
       &PRINT
         &RESTART  OFF
         &END RESTART
       &END PRINT
     &END SCF
     &QS
       EPS_DEFAULT     9.9999999999999998E-13
       EXTRAPOLATION  PS
       EXTRAPOLATION_ORDER  3
     &END QS
     &MGRID
       CUTOFF     2.8000000000000000E+02
       REL_CUTOFF     3.0000000000000000E+01
     &END MGRID
     &XC
       DENSITY_CUTOFF     1.0000000000000000E-10
       GRADIENT_CUTOFF     1.0000000000000000E-10
       TAU_CUTOFF     1.0000000000000000E-10
       &XC_FUNCTIONAL  NO_SHORTCUT
         &PADE  T
         &END PADE
       &END XC_FUNCTIONAL
     &END XC
   &END DFT
   &SUBSYS
     &CELL
       A     1.2413800000000002E+01    0.0000000000000000E+00    0.0000000000000000E+00
       B     0.0000000000000000E+00    1.2413800000000002E+01    0.0000000000000000E+00
       C     0.0000000000000000E+00    0.0000000000000000E+00    1.2413800000000002E+01
       MULTIPLE_UNIT_CELL  1 1 1
     &END CELL
     &COORD
O    1.2265691221627931E+01    1.3554379171423920E+00    1.0875430684012704E+01
O    6.4523069643984989E+00    3.7059062633719253E+00    8.6472636643113550E+00
O    7.7675673951360463E-02    2.1684371536246210E+00    8.2608521123256455E+00
O    1.2086330589737107E+01    2.6383252619362199E+00    2.1708326975636618E+00
O    1.2290560196510288E+01    4.1705949204699779E+00    1.2102197043947422E+01
O    7.2035596726109947E+00    9.4146485856913820E-01    4.7596718561381364E+00
O    8.3332223409533519E+00    7.2077504740971721E+00    4.6827221582125977E+00
O    1.2331825707496048E+01    1.1521085308244924E+01    8.0815299734465817E+00
O    3.2742345188961774E+00    4.4591086965600129E+00    9.1745403213677186E+00
O    2.8601595120416268E+00    3.7871245016871895E+00    6.5410915744246925E+00
O    1.3797112886109733E+00    6.3917880581901141E+00    5.6509704637621028E-01
O    1.8717761880990713E+00    8.6859262981941630E+00    2.0908519529191265E+00
O    3.7724064802103525E+00    1.2107291458155805E+01    8.6206045004982172E+00
O    6.4253589961829904E+00    3.6667889351994014E+00    2.7875811960065562E+00
O    1.9996776817698558E+00    1.8525814940778176E+00    4.8671276287697038E+00
O    8.2870232697559789E+00    2.4222003421164988E+00    6.9417328333568333E+00
O    5.7524951496893237E+00    3.3354107633529040E+00    1.2486441927304295E+01
O    1.1313051414990086E+01    5.6568428932996451E+00    2.2481541693217628E+00
O    4.2889057121707701E+00    2.1146768890844845E+00    1.0586394798004836E+01
O    5.3987998378703246E+00    3.3584238927998511E+00    5.4860023554711699E+00
O    6.5093881290544262E+00    1.1870556687544097E+01    7.1448877052669502E-01
O    3.2525895246416590E+00    2.3434817325715191E+00    2.4132492711214608E+00
O    8.0086831362982185E+00    6.3565304698358753E+00    7.4977786194835785E+00
O    5.9288605826881042E+00    6.5082868323258740E+00    1.2195795095729437E+01
O    1.0610386311436502E+01    1.1861263632461069E+01    1.2200578573099012E+01
O    9.3403643295945145E+00    3.6891058088922448E+00    3.5273419115089317E+00
O    1.1111299843541209E+00    5.7890416771149713E+00    6.6473030303814715E+00
O    8.0194980711238149E+00    3.3269761635710347E+00    1.0869760158477504E+01
O    1.2376083013546715E+01    9.6748017485163942E+00    1.1772437464201852E+01
O    4.2098973265835431E+00    7.0914059878457012E+00    8.1403049713510747E+00
O    3.7839651612970591E+00    8.2290477965539353E+00    1.1585029598452721E+01
O    1.1076298200094975E+01    4.5429098149790690E+00    7.8327544665100799E+00
O    1.0435269832523138E+01    8.4217540714630523E+00    1.0328469115847783E+00
O    1.9827956974872571E+00    6.4005653370061664E+00    1.0353833557955895E+01
O    4.7041684252649549E+00    5.6226860857456062E-01    5.6097297040744420E+00
O    8.7178686987317011E+00    1.2242114021519122E+01    8.0976596680829243E+00
O    2.6327397232809204E+00    1.0520524625894511E+01    8.2914708818933869E-02
O    7.2399912123022112E+00    1.0511639516828573E+01    4.2432763972059888E+00
O    2.2807117212628150E+00    2.7612433538579695E-01    1.0807249794939533E+01
O    8.8632074472443563E+00    9.4642167576059721E-01    1.3400870233089828E+00
O    1.9443010564853918E+00    8.0893907787971493E+00    7.5354954085064998E+00
O    9.6598268770605937E+00    8.0354923931291502E+00    9.8565408159862020E+00
O    1.0903669231891215E+01    8.3307122625610059E+00    6.4773119488925204E+00
O    3.5124665132315251E+00    4.8693737552337968E+00    1.5451810315134329E+00
O    7.9775887181865155E+00    8.6026768360209829E+00    1.2050859810705306E+01
O    8.3694028848612110E+00    1.0019375195784670E+01    6.6836126003785630E+00
O    5.6546609223314563E+00    6.0810554249666078E+00    5.5283899539327388E+00
O    1.1742552751790603E+01    1.6241883377932087E+00    5.0859546263627911E+00
O    9.7585749951473648E+00    9.8110344561912992E+00    3.5364834297912924E+00
O    3.9627902122681342E+00    1.0548916241539377E+01    4.6848631718496723E+00
O    9.0110924202405651E-01    6.3699160958047703E+00    4.0614660823325650E+00
O    6.8825876156876076E+00    6.4084176011472795E+00    2.5046872105492231E+00
O    3.8180772811827119E+00    6.6391261700161142E+00    3.7786504202964748E+00
O    6.5639467316230116E+00    8.3081673455500749E+00    8.8142645601751219E+00
O    9.7792980437881223E+00    1.3440093692241412E-01    3.8518018541300427E+00
O    4.1040698796140145E+00    1.1645975677414327E+01    2.2167371830935774E+00
O    5.3225429743820856E+00    8.7370886225245794E+00    2.7520608154200970E+00
O    1.0008058591962506E+01    5.3735029665407925E+00    5.3757689310938401E+00
O    1.2260293130221443E+01    8.6464312203551188E+00    3.9709765249997808E+00
O    2.3431385601209946E+00    1.0747244557908941E+01    6.8128199420223376E+00
O    7.0016868551874065E+00    6.6241368924081878E-01    1.0534335410490792E+01
O    5.1724988369890497E+00    1.0218489635932992E+01    1.0357201131261707E+01
O    1.1186305513789575E+01    5.8851551015739396E+00    1.0299187716035574E+01
O    1.2277001260224329E+01    8.9569800093949468E+00    9.0707829070917327E+00
H    1.2357860830731791E+01    2.3336130669253974E+00    1.1187155568543403E+01
H    1.1946220241711258E+01    1.5338173488074891E+00    9.8820453883928092E+00
H    5.5871853426087972E+00    3.4492613541409556E+00    9.0443492587055712E+00
H    6.8931134907708556E+00    3.0239505626689955E+00    7.9852740730676510E+00
H   -1.4374932807743201E-01    1.5098328419610152E+00    7.5263433502058730E+00
H   -3.8863081470373378E-01    3.0530889725933754E+00    7.9297897962465393E+00
H    1.2176296489828426E+01    2.9747369580386387E+00    1.1924332874810630E+00
H    1.2991672705128627E+01    2.9142153785988061E+00    2.5155247900314808E+00
H    1.1517567593231831E+01    4.3255900368446589E+00    1.1434680677252963E+01
H    1.2784986513018206E+01    5.0635244336048890E+00    1.2040091012079030E+01
H    6.9670622346701485E+00    1.7387225601620560E+00    4.1850000735929234E+00
H    6.2296039666331398E+00    6.8947303211088384E-01    5.1579542956580395E+00
H    7.7273735081136792E+00    7.2217674062567117E+00    5.4888583172762866E+00
H    9.1692072167871022E+00    6.6296203275141270E+00    4.9460943069404140E+00
H    1.2846855747609686E+01    1.1781022044301080E+01    8.9005547148165469E+00
H    1.1983278974113929E+01    1.0563476629178270E+01    8.3168526530915532E+00
H    3.5248483355808551E+00    3.8400890178710294E+00    9.9509258876192472E+00
H    2.4297317699943410E+00    4.9331020171899951E+00    9.5245232744316706E+00
H    2.1731938184003337E+00    4.5584091436371512E+00    6.3013341591596852E+00
H    2.8564526256042981E+00    3.8576860117974747E+00    7.5841383258265189E+00
H    1.1402539117555379E+00    7.1967454275138758E+00    1.1594208983717618E+00
H    2.2451171240554344E+00    6.0044560574521588E+00    1.0028292980710334E+00
H    2.8160026093261354E+00    8.9701473038211184E+00    2.2994247561324661E+00
H    1.3289450005948038E+00    8.9940773536409466E+00    2.8983100092882279E+00
H    4.4550591679044063E+00    1.1540320632851561E+01    9.1643576662467918E+00
H    3.0505711472947161E+00    1.2474005028879651E+01    9.2862522483544918E+00
H    5.8591666421271249E+00    3.4580100700775538E+00    3.6616851024567363E+00
H    5.8328742264892313E+00    3.4002922178484858E+00    1.9823307374076256E+00
H    9.5572611638988725E-01    1.6451712168315245E+00    4.8407909619533953E+00
H    2.2283444181420133E+00    2.4812713852574060E+00    5.6873030305147489E+00
H    8.4431245059902604E+00    1.6049877318589634E+00    7.5442116124544309E+00
H    8.0660994841680296E+00    2.0136933689786947E+00    6.0338203198001930E+00
H    5.2179741117744634E+00    2.8944033191690046E+00    1.1676399084693253E+01
H    6.6808709760190323E+00    3.4137078887783838E+00    1.1974300217660637E+01
H    1.0787579562973425E+01    6.5181197889747757E+00    2.0988579269068799E+00
H    1.1679706778665599E+01    5.3602110737706035E+00    1.3423727078773657E+00
H    3.4353057955578765E+00    1.5422699911176583E+00    1.0899340815425139E+01
H    4.8360485702945182E+00    1.4266340285649339E+00    1.0089916384864640E+01
H    4.3860607829045044E+00    3.3639145070872201E+00    5.6882685052594395E+00
H    5.6851714190646154E+00    4.3694444329673985E+00    5.5474154036563839E+00
H    6.2904804048387897E+00    1.1824217953334481E+01    1.7188480100643635E+00
H    5.6254641812453992E+00    1.2118531010247619E+01    3.2824508347070219E-01
H    3.5448573483476808E+00    1.3905341519237324E+00    2.1815279666970606E+00
H    2.6083113748096007E+00    2.2011598085359250E+00    3.2448945681040828E+00
H    7.1214218837230359E+00    5.8747071446836436E+00    7.5240572137578807E+00
H    8.6555160568689153E+00    5.7350202337791956E+00    7.0296204332787671E+00
H    6.0003836070029219E+00    5.6511562312009280E+00    1.1673082486798638E+01
H    6.2576732802190334E+00    6.3249637437984880E+00    1.3168254323635336E+01
H    1.1110396422511217E+01    1.2636582150483582E+01    1.1695466243762970E+01
H    1.0264522667314244E+01    1.2297177086809643E+01    1.3044653989288523E+01
H    9.9063833653605631E+00    4.0522743932582417E+00    2.7328440010558936E+00
H    8.5320879706477371E+00    3.4662362318686690E+00    2.9418373706986594E+00
H    1.4550165199538194E+00    6.6684268578473764E+00    7.1063081480779342E+00
H    1.0011846960111075E+00    6.1757849888514196E+00    5.6553257210844627E+00
H    7.9834383168151897E+00    3.6965600156462219E+00    9.9295254035483609E+00
H    8.0703050731562076E+00    2.3148761700540579E+00    1.0750109953178525E+01
H    1.1741856955038811E+01    1.0457046792693932E+01    1.2099116522328607E+01
H    1.2145113035772996E+01    8.9347057518293269E+00    1.2412278015077291E+01
H    3.3373441398216395E+00    7.6121189967397171E+00    7.8531113790446021E+00
H    3.8437404997801434E+00    6.2417170006995768E+00    8.6113781620861136E+00
H    3.1132048694106706E+00    7.6196674890884744E+00    1.1070334639355975E+01
H    4.4752609606009184E+00    7.6309535586688719E+00    1.2076672515554915E+01
H    1.1595109075910603E+01    4.9845971853209088E+00    7.0588086549215738E+00
H    1.0300179646157204E+01    4.1359780470034400E+00    7.3180405599936700E+00
H    1.0066859028657598E+01    8.9451142006843618E+00    1.8647420070759291E+00
H    9.5720897423752600E+00    8.2655563920175297E+00    4.9823227537656639E-01
H    1.3189876664555782E+00    6.6902311101741558E+00    9.6502228821050551E+00
H    1.4021547291057150E+00    6.4513381197013713E+00    1.1227717775738615E+01
H    4.1225227084819602E+00    1.3300958457233234E+00    5.2660310885245769E+00
H    4.6863014012487207E+00    6.4332081832311983E-01    6.6181574626619453E+00
H    9.4703739840673578E+00    1.2334173896527592E+01    8.7409121785594746E+00
H    8.8486705805519001E+00    1.1353162651343425E+01    7.5414161566644715E+00
H    1.7346243376506685E+00    1.0023269196055132E+01    1.4521089677731566E-01
H    3.3374330937769492E+00    9.8445733321795696E+00   -2.3578650080696531E-01
H    7.0506121547580429E+00    1.1505999570463931E+01    4.1254822367654258E+00
H    6.4716144239807987E+00    9.9355117782160747E+00    3.7910213271467392E+00
H    1.3268017188784476E+00    5.8361467399923095E-01    1.1128891425288007E+01
H    2.5223736851222402E+00   -5.4515284208258008E-01    1.1460505429957362E+01
H    8.7695034601090676E+00    1.8730261306346285E+00    9.9022339814259486E-01
H    8.0909040111767805E+00    3.3982611891733233E-01    9.9167137075846712E-01
H    1.1204885569465366E+00    8.3716616986635017E+00    8.1793585849232109E+00
H    2.0883466262745860E+00    8.9941815003034993E+00    7.0139251045159199E+00
H    8.9092338083700913E+00    7.7940115337035349E+00    9.2222012190835709E+00
H    9.0650360993651518E+00    8.4492997048302509E+00    1.0614237103704143E+01
H    1.0125261936621985E+01    7.6972651388062463E+00    6.4508008035740545E+00
H    1.0499882480553557E+01    9.1992905673857539E+00    6.1555510652610046E+00
H    3.4970438967310460E+00    3.9586491104197816E+00    2.1122397671539588E+00
H    4.0583866165584190E+00    4.5845492847974905E+00    7.4299433254020142E-01
H    7.3547019310358497E+00    9.3907165959532097E+00    1.2034560547161036E+01
H    7.3341204126243325E+00    7.7711803058269480E+00    1.2054181675347007E+01
H    7.8271359122354092E+00    1.0161864557796862E+01    5.7814824441730979E+00
H    7.7120973949995717E+00    9.5091968613052344E+00    7.2843865451266776E+00
H    5.2900515914214692E+00    6.4890676352473617E+00    6.3929667695953176E+00
H    4.8679125606970919E+00    6.3175498760843398E+00    4.8312977475731653E+00
H    1.1521813479055917E+01    2.1923134294364530E+00    4.2496119720286005E+00
H    1.1222779192576338E+01    7.8413521722511703E-01    4.7830452887771298E+00
H    8.8119906724502197E+00    9.6778997188624398E+00    3.9666598404570088E+00
H    9.9342635723548689E+00    1.0814166420179067E+01    3.7816690213250155E+00
H    3.1082412934277155E+00    1.0546280663961960E+01    5.2869156842281990E+00
H    4.3132121960850656E+00    1.1455647024803827E+01    5.0610955611754349E+00
H    4.2219844129765582E-01    7.3045251091105925E+00    3.8013411241080810E+00
H    2.9766507545147414E-01    5.7724531525171088E+00    3.4527167705322506E+00
H    7.5860409191409817E+00    6.5679521129191620E+00    3.2915919983255497E+00
H    6.6758593794492951E+00    5.3831662367035937E+00    2.5200074513620883E+00
H    3.8532901491627038E+00    6.3060011184121345E+00    2.8123839800106132E+00
H    2.7953202289157675E+00    6.5486583544769283E+00    3.9537589710662724E+00
H    5.5553109353381105E+00    8.0120428669699972E+00    8.6584496783236986E+00
H    6.9993998569157432E+00    7.4780307290169663E+00    8.4104207149777892E+00
H    9.5571587465052641E+00    7.3282222377270700E-01    3.0174934412141332E+00
H    8.9237161921951014E+00    1.3434744964853648E-01    4.4076415640866600E+00
H    3.8482518861390020E+00    1.1174452569524338E+01    1.3441132624697147E+00
H    3.9626527205396438E+00    1.0964284064940857E+01    3.0102559476072352E+00
H    5.9449721154893362E+00    7.8892003227198151E+00    2.7995602859871256E+00
H    4.7651318478105225E+00    8.7229145811688049E+00    3.5906365527452189E+00
H    1.0905855590462348E+01    5.5302297929430289E+00    4.9343939976041158E+00
H    9.5033533984917984E+00    4.6732861306340503E+00    4.7170650155462148E+00
H    1.1491935736740214E+01    9.0019296606962378E+00    3.3983882088429129E+00
H    1.1959938005669116E+01    8.7851571773517581E+00    4.9401248591307194E+00
H    2.9404442925200405E+00    1.1333366123652711E+01    7.4880999173574381E+00
H    1.3993361021505755E+00    1.1120249168991602E+01    6.8063795104244464E+00
H    7.2180390176119316E+00    1.2798394447464362E-01    9.7032741476542697E+00
H    7.1646531631432504E+00    1.0771817698157944E-01    1.1367537673088446E+01
H    4.8113494103454073E+00    9.3237233228418468E+00    1.0837722105749187E+01
H    6.0817040348704792E+00    9.8061889870779684E+00    1.0186961890390403E+01
H    1.0565212968846136E+01    6.7306912582551908E+00    1.0314509384118493E+01
H    1.1239212631589208E+01    5.5937306260539685E+00    9.3143955162381840E+00
H    1.2188441116721872E+01    8.9926759698745684E+00    1.0127830375806765E+01
H    1.1415745606508091E+01    8.6329943934293922E+00    8.6365927756282286E+00
     &END COORD
     &VELOCITY
           2.4352895689753060E-04   -1.2005787686873433E-04    8.6437472843082369E-05
           5.1308833497021209E-05   -1.2157267875540713E-06   -1.4102765547919058E-05
          -1.3301557325158772E-04   -8.3933401104611111E-05   -1.7228315507862918E-04
           3.2310035322868918E-04   -2.8975142829611904E-04    2.2821840321534526E-04
           3.6814672511769004E-04   -1.6545926054237426E-04    8.2260305156683629E-05
           8.6833533914987526E-05   -1.6730042257761854E-04    2.3230467888004914E-04
          -1.9151490594541506E-04    3.6505951846507067E-05    1.7677888658468137E-04
          -2.7334923677290249E-04   -2.0364577278773122E-06   -2.5180936275461658E-04
          -2.9104530009429601E-04    1.4206649360487200E-04   -9.4225803956425616E-05
           4.9611736872173844E-05    1.9755004721359480E-04   -3.9672360394390216E-05
          -1.0339976255388045E-04    2.5535991311228867E-04   -1.7751224400536822E-04
           1.2391364052887472E-04   -5.1653553927161615E-05    2.4858753532785635E-04
           3.7151260902503463E-05    1.3910103950695785E-04   -2.6002426241719987E-04
          -9.0568511030254413E-05   -5.4222395370675452E-05    1.3572623090194559E-04
          -1.3545521085906924E-05    2.9306779465300902E-04   -1.1045795169685693E-04
           3.4361721983007976E-04    1.2593016463793985E-04    1.2983789202312176E-04
           3.1082499004564284E-05   -2.1485637728372732E-04    1.3648810971780077E-04
          -1.1186997159040388E-04    8.8655851502201862E-05    8.1590272417729552E-05
           7.2533933878880658E-05   -7.4819315189114002E-05   -3.7629488888880491E-05
          -3.9322988575807241E-05    7.7713369531008650E-05   -4.9484602597751465E-05
           1.3057379766226768E-04    3.2998964297610551E-05    2.3389866014230675E-04
          -2.3509358637257007E-04   -1.3034774433781779E-04   -7.8879784829641002E-05
           2.2663974882088098E-04    3.8940882890783191E-06   -1.0672780451672053E-04
          -4.8905242918565448E-04   -8.8291554418751142E-05    4.1273297091397195E-05
          -2.3517177964262984E-04    3.0047635156385480E-05   -4.3285500883681872E-05
           2.3871849795389807E-04    1.6484647710472071E-04   -6.5701800576386690E-06
           2.1756702613403232E-06   -3.6685136594084616E-04    1.9083731501457386E-05
           1.5263277743778498E-04   -4.5406823835611003E-05   -4.7850620499964308E-05
          -2.4366711287517520E-04   -1.5793106100492796E-04    1.4697438563689928E-04
          -4.6380813505090670E-05    6.7005925797435146E-05   -1.4094312562544403E-04
           7.0386578673445492E-05    1.4790076784477793E-04    2.3286433602936387E-04
          -1.0544099119084816E-04    9.0971533133952790E-05    1.4244526951981106E-04
           3.9446322296807484E-04    6.7569172820087115E-05    1.1084316707429111E-04
          -7.7542156658447862E-05   -1.2551164720886113E-04   -1.9898819772681741E-04
           4.0834979217823850E-04    1.4764967627198830E-04    2.0705283491083506E-05
          -2.3057413576357962E-04   -1.2071393189590049E-04    1.1534324681646082E-04
          -2.2445140569554137E-04    3.2516286912469223E-04   -1.1004648482225797E-04
          -2.5249548995330656E-05    3.9104765548159343E-04    1.6361307451844071E-04
           2.2783467789545281E-05   -6.3114575280279450E-06    4.4689206318551468E-05
          -2.2749371826823365E-04   -7.0059699222336764E-06    6.3814403816925857E-05
          -7.5853164186866597E-05    8.7002441536799993E-05   -2.6945242200095880E-04
          -1.5174645296423038E-04   -1.6488710611767870E-04   -8.8599937395974276E-05
           8.3186202728563699E-06   -5.3104079059748838E-05   -7.5058533111052955E-05
           6.6500165507199136E-05    1.1873974519975298E-04   -1.6876577035679124E-04
          -3.6861210826481875E-04   -4.4905138593345344E-04   -7.2135058686116825E-05
          -1.2506938727183985E-04   -2.1650974605778457E-04    1.4245782354611686E-05
           1.5305853253063487E-04    7.8061367150261687E-05   -2.6041680607603532E-04
           1.1603170847582673E-04    1.3154101218141735E-04    1.9734889966740322E-05
          -2.7566410321401951E-05    4.9188391053140510E-05   -8.2861079403995753E-05
           1.7539773471492658E-04   -1.0194492078692811E-04   -1.5958541294954723E-05
           9.1160346890128423E-06   -1.7067102899873121E-04   -1.2704807040665373E-04
           2.0533708583832908E-04   -1.8520865666376611E-04    1.5572511017027441E-04
          -9.5059251454529276E-05    3.8900119903851726E-04    6.8133144196699618E-05
          -3.3406382324510340E-05    1.1411499707522368E-04    4.8377796709714567E-05
          -3.2166174218023101E-04   -6.7429210558706017E-05   -3.3439454031856502E-04
          -1.0567197804924569E-04   -1.8604152118331546E-04   -4.1177966912103229E-05
           3.0232555384659846E-04    4.4482756434841175E-08   -4.0954738013947705E-05
           3.4127138907824020E-04   -7.5686724692429567E-05    3.1369710523366547E-04
           4.8645208040393483E-06    9.5406277062278055E-05    4.0430203566415058E-05
          -7.3487234920331055E-05   -1.1019701265432616E-04   -1.6988167751712740E-04
          -9.5116294348928832E-05    1.5929238980019931E-04    1.0050636564756354E-04
           2.9577452115296920E-04   -2.0295534619235218E-04   -3.8717435444229745E-06
           3.3427097552714608E-05    2.9886113903994555E-05    2.3028601057055815E-05
           2.1249634917595376E-04   -1.8765388695137568E-04   -7.1382764687393920E-05
          -4.5134200613902275E-04   -3.6461998035680984E-05   -6.2014780459271660E-04
           9.6717121607581638E-04   -4.1496771604937981E-04   -1.4275705698020614E-03
           7.4612048410829877E-04    7.4926340799376151E-04   -2.8983563266556952E-05
           1.1950822730794120E-03   -2.4938163772269043E-04   -4.6955699926739863E-04
           3.3437263773388864E-04   -4.4066319731258109E-04   -4.5337897815569511E-04
           1.1011431662374714E-03    2.9139917327057315E-04   -1.2198962736656169E-03
           2.2385249970937983E-04    1.5948609342852811E-03   -3.7881054219357892E-04
           1.0079326383131853E-03   -6.8228660473739541E-04    2.6177285017192468E-04
          -7.1676772164175573E-05    2.5746464896989209E-05   -1.3520750351032475E-04
          -6.5359743159854012E-04   -1.1729133117782466E-04    1.7260386305605448E-04
          -6.3946645532217330E-04   -9.4886603544847947E-04   -2.5714998909091749E-04
          -3.9131100882666572E-04   -2.4416892645021614E-04   -5.0810873229549807E-04
           2.8831271512073757E-04   -2.0448067102036096E-03   -7.4372526402193039E-04
           3.8720872053749506E-04   -1.5659038684752242E-03   -8.1922109566908807E-04
           6.6131192185052748E-04   -2.0572267226636788E-04   -4.7008211594387161E-04
          -4.8840437585915406E-05   -1.4279618006708661E-03    8.4954144524131462E-04
          -5.1075273925361704E-04    9.0001937672722478E-04   -4.3720385364845541E-04
           2.7825781516855979E-04    1.1169167719062977E-04   -5.6938528402103840E-04
          -1.5084824930707793E-03    7.3769946902166577E-04   -6.1844046623150410E-06
           2.4538874923295896E-04    9.7494646952597363E-04   -4.8314180616157481E-04
          -8.5480359468109672E-05    5.9478416172000707E-04   -4.9304901637034180E-05
          -6.8266994504771815E-04   -5.5575566575144454E-04    7.1333097089246601E-04
           4.9456847773699070E-05    6.5025459335112047E-04   -7.7972174813344727E-04
           7.9382955318782610E-05   -7.8198264146195427E-04    7.2595378947876382E-04
           2.5852131569713429E-04    7.5469391167589712E-05   -5.8533339039005009E-04
           3.2409077359182143E-04   -2.7317136237447245E-04    2.5330976797401593E-04
          -1.0540506164907796E-03    5.0562455740652673E-04    7.1097587663531249E-04
           8.0546734662922937E-04   -1.4475933298988995E-04   -9.1148946840034924E-04
          -9.4447429200898887E-05   -1.7442565229243824E-04   -6.6682127829187604E-04
          -5.9604062243247366E-04    2.1026825326353588E-03   -1.6362959701534982E-04
          -5.9396099202916740E-04   -1.8326838202933882E-04   -3.0896384759815490E-04
          -1.1277145425888740E-04   -1.9670835968923592E-04    5.4210691563328208E-04
           3.7332633878944121E-04   -2.2247370329784335E-04   -3.6283756805719988E-04
          -5.2077706489084632E-04    8.9077612568343504E-04   -5.6184164068630554E-04
           6.7815751256228990E-04    1.3444514439427298E-04   -5.4935154403489938E-04
          -5.1310271396714667E-05   -7.8829554703857519E-04    5.3276039723624570E-04
          -8.5130409006861494E-05   -4.3984632745339744E-04   -1.5059866460117165E-03
           1.9680255627632642E-04    7.0602917217851542E-04    7.9813152563949405E-04
          -3.1120886791730854E-04    7.4703220924908996E-04    4.9930464952393627E-04
          -7.7046114692358653E-04    8.8060124138998564E-04    4.4946245364741919E-04
           4.7827412322396862E-04    2.0967831427716647E-04    9.9045583191626537E-04
           2.7338768314348052E-04   -1.2911505092750886E-05    2.0308294566657049E-03
           2.2268144216384391E-04    4.5671096290350632E-04    2.0294438627015271E-03
          -1.3963762680726786E-04    6.4107067981904403E-04    2.3590679284444952E-04
           1.0627265607014544E-03   -8.1441755638387799E-04    2.5570925291701861E-04
           5.5752905183953990E-04   -2.4904265434213548E-04    1.0092943120091030E-03
           8.2308722580080927E-04    4.6317561234639247E-04    1.0881531478801358E-03
           1.0550329244360581E-03    1.4718671462257997E-03   -1.9479088051362197E-04
          -5.9234975152579563E-04    1.4349114685484341E-03   -1.0527038082669303E-03
           1.6932613075240486E-04   -2.7170861877303201E-04   -1.8216829138192910E-04
          -3.9770868216106026E-04    1.1372230153317308E-03    1.5121550510519097E-04
          -2.1017769409022136E-04    2.5917097130739424E-04    1.2964206860147005E-03
           5.7060427920405988E-04    4.3671541264605237E-04   -1.4660693893633753E-04
           2.7365554736083074E-04   -1.1051173481845316E-04   -2.7041350586635488E-04
          -1.5490310923879310E-03   -4.8289839360004958E-04    1.0665735172174808E-03
           1.1224150504433685E-04    6.1359106772063349E-04   -2.4338314528336770E-04
          -8.4574512528257735E-04    2.7257287515670742E-04    4.4909119714636611E-04
          -9.0308194375838082E-04    4.6440059128301762E-04   -2.6541928312041164E-04
          -1.1903653561473981E-03    3.2337940592608533E-05   -5.5038916003414095E-05
           2.6854808173487014E-04   -1.1020380157753932E-03    6.7777744831009875E-04
           3.1913849412945654E-04    1.0174460215334892E-03   -3.0838829166123080E-04
          -4.2287091606418056E-04    4.3945863776695263E-04   -8.2903290422711576E-04
           4.5796851367031164E-04   -7.2851844241726802E-04   -1.9906514358221413E-04
          -2.5421516948699873E-04   -2.9861670766508693E-04    4.0880986581154734E-04
          -1.7312719899517624E-04    6.5870510361406805E-04    1.2668576802608992E-03
           2.5583564443950506E-04   -7.9678978685488383E-07    1.1677936184226521E-03
          -1.5491526831913806E-05    1.3159291771841434E-03    1.0400222974351976E-03
           8.9575808404999567E-04   -3.3563207831786547E-04    5.8434047540944318E-04
           1.0485189083691826E-03    1.4354236887748290E-04   -1.3233266899022572E-03
          -7.1283458299857506E-04    3.7647186490264367E-04   -7.8163815422739016E-04
          -5.0191624994897708E-05    2.0915573574025087E-05   -3.3662881984284065E-04