 # Version information for this restart file 
 # current date 2023-07-24 14:01:58.852
 # current working dir /mnt/lustre/indy2lfs/work/tc047/tc047/mrnuff-cirrus/cp2k
 # Program compiled at                              Thu Jun 30 12:29:55 BST 2022
 # Program compiled on                                             cirrus-login3
 # Program compiled for                                             Cirrus-intel
 # Source code revision number                                       git:e635599
 &GLOBAL
   PRINT_LEVEL  LOW
   PROJECT_NAME H2O-64
   RUN_TYPE  MD
 &END GLOBAL
 &MOTION
   &MD
     ENSEMBLE  NVE
     STEPS  10
     TIMESTEP     4.9999999999999994E-01
     STEP_START_VAL  10
     TIME_START_VAL     4.9999999999999982E+00
     ECONS_START_VAL    -1.1007588181101280E+03
     TEMPERATURE     3.0000000000000000E+02
     &AVERAGES  T
       &RESTART_AVERAGES
         ITIMES_START  1
         AVECPU     3.2551976425806060E+00
         AVEHUGONIOT     0.0000000000000000E+00
         AVETEMP_BARO     0.0000000000000000E+00
         AVEPOT    -1.1010668160173032E+03
         AVEKIN     3.0070034549301228E-01
         AVETEMP     3.3142598855968424E+02
         AVEKIN_QM     0.0000000000000000E+00
         AVETEMP_QM     0.0000000000000000E+00
         AVEVOL     1.2909542132085598E+04
         AVECELL_A     2.3458682268415796E+01
         AVECELL_B     2.3458682268415796E+01
         AVECELL_C     2.3458682268415796E+01
         AVEALPHA     9.0000000000000000E+01
         AVEBETA     9.0000000000000000E+01
         AVEGAMMA     9.0000000000000000E+01
         AVE_ECONS    -1.0896372673366837E+01
         AVE_PRESS     0.0000000000000000E+00
         AVE_PXX     0.0000000000000000E+00
       &END RESTART_AVERAGES
     &END AVERAGES
   &END MD
 &END MOTION
 &FORCE_EVAL
   METHOD  QS
   &DFT
     BASIS_SET_FILE_NAME GTH_BASIS_SETS
     POTENTIAL_FILE_NAME POTENTIAL
     &SCF
       SCF_GUESS  ATOMIC
       &OT  T
         MINIMIZER  DIIS
       &END OT
       &PRINT
         &RESTART  OFF
         &END RESTART
       &END PRINT
     &END SCF
     &QS
       EPS_DEFAULT     9.9999999999999998E-13
       EXTRAPOLATION  PS
       EXTRAPOLATION_ORDER  3
     &END QS
     &MGRID
       CUTOFF     2.8000000000000000E+02
       REL_CUTOFF     3.0000000000000000E+01
     &END MGRID
     &XC
       DENSITY_CUTOFF     1.0000000000000000E-10
       GRADIENT_CUTOFF     1.0000000000000000E-10
       TAU_CUTOFF     1.0000000000000000E-10
       &XC_FUNCTIONAL  NO_SHORTCUT
         &PADE  T
         &END PADE
       &END XC_FUNCTIONAL
     &END XC
   &END DFT
   &SUBSYS
     &CELL
       A     1.2413800000000002E+01    0.0000000000000000E+00    0.0000000000000000E+00
       B     0.0000000000000000E+00    1.2413800000000002E+01    0.0000000000000000E+00
       C     0.0000000000000000E+00    0.0000000000000000E+00    1.2413800000000002E+01
       MULTIPLE_UNIT_CELL  1 1 1
     &END CELL
     &COORD
O    1.2265692089483922E+01    1.3554390129941734E+00    1.0875425741210554E+01
O    6.4523125712781679E+00    3.7059030017227976E+00    8.6472703373293012E+00
O    7.7679434805425177E-02    2.1684363409615393E+00    8.2608499727948548E+00
O    1.2086328917682355E+01    2.6383236471455547E+00    2.1708319631148121E+00
O    1.2290563434792581E+01    4.1705987030843552E+00    1.2102197401500598E+01
O    7.2035546534508015E+00    9.4146440982944957E-01    4.7596753308530042E+00
O    8.3332259924708545E+00    7.2077559238206659E+00    4.6827252174467269E+00
O    1.2331820354972862E+01    1.1521085584601417E+01    8.0815267568454647E+00
O    3.2742305248729235E+00    4.4591006237004764E+00    9.1745323461749013E+00
O    2.8601657947009125E+00    3.7871321994319307E+00    6.5410904120532818E+00
O    1.3797135980521784E+00    6.3917883108528404E+00    5.6509499049348888E-01
O    1.8717778176469480E+00    8.6859327223316924E+00    2.0908475002935618E+00
O    3.7724126920716197E+00    1.2107291686118636E+01    8.6205990989003869E+00
O    6.4253612010428327E+00    3.6667844669334788E+00    2.7875787966085679E+00
O    1.9996801569167659E+00    1.8525818618605721E+00    4.8671305057775074E+00
O    8.2870264289442606E+00    2.4221945186202452E+00    6.9417301194039185E+00
O    5.7524965525744056E+00    3.3354063225407753E+00    1.2486444073906803E+01
O    1.1313041873263916E+01    5.6568394091370831E+00    2.2481538681309421E+00
O    4.2889086332742652E+00    2.1146774663677497E+00    1.0586400462686345E+01
O    5.3988008779579060E+00    3.3584215761665637E+00    5.4859980676067392E+00
O    6.5093803283317859E+00    1.1870555907452832E+01    7.1448610258286815E-01
O    3.2525927590516535E+00    2.3434818290721511E+00    2.4132514479858180E+00
O    8.0086796499284478E+00    6.3565335203085631E+00    7.4977752039617300E+00
O    5.9288585788258032E+00    6.5082801666043695E+00    1.2195796701642449E+01
O    1.0610385294795510E+01    1.1861264429738561E+01    1.2200574174939877E+01
O    9.3403690756566213E+00    3.6890996107164220E+00    3.5273423653474780E+00
O    1.1111278086577847E+00    5.7890355206449975E+00    6.6473009501982139E+00
O    8.0194995343338249E+00    3.3269739508474059E+00    1.0869758841489617E+01
O    1.2376084676796024E+01    9.6748049821028150E+00    1.1772442429127356E+01
O    4.2098962719504360E+00    7.0914037241392229E+00    8.1403049780540133E+00
O    3.7839656891278266E+00    8.2290488153628498E+00    1.1585038748792192E+01
O    1.1076296436002547E+01    4.5429033328727106E+00    7.8327522122959179E+00
O    1.0435269965490477E+01    8.4217711221836957E+00    1.0328413587523571E+00
O    1.9828015281270137E+00    6.4005825276161135E+00    1.0353823655978516E+01
O    4.7041682767469339E+00    5.6227133611203073E-01    5.6097237226911991E+00
O    8.7178718108894255E+00    1.2242115811187363E+01    8.0976567639230925E+00
O    2.6327341025096023E+00    1.0520521873272967E+01    8.2905623926733604E-02
O    7.2399931187465478E+00    1.0511642196931652E+01    4.2432664330032450E+00
O    2.2807064781620903E+00    2.7612056427352416E-01    1.0807250569989252E+01
O    8.8632061138829759E+00    9.4642072500206409E-01    1.3400856795968239E+00
O    1.9443088048744421E+00    8.0893935868696012E+00    7.5355059867712058E+00
O    9.6598248299590068E+00    8.0355046451624688E+00    9.8565400345208989E+00
O    1.0903669851584306E+01    8.3307153998975139E+00    6.4773146916029027E+00
O    3.5124567442237180E+00    4.8693650210822028E+00    1.5451764009707623E+00
O    7.9775830453592196E+00    8.6026723333304176E+00    1.2050849513770073E+01
O    8.3694035479504709E+00    1.0019371052443185E+01    6.6836141760228882E+00
O    5.6546743218574385E+00    6.0810664230943843E+00    5.5283846573827162E+00
O    1.1742547847645341E+01    1.6241840639034457E+00    5.0859575162072748E+00
O    9.7585719615141127E+00    9.8110347715519559E+00    3.5364867774940483E+00
O    3.9627876574400451E+00    1.0548914651573666E+01    4.6848634346389995E+00
O    9.0110847254961368E-01    6.3699180308686305E+00    4.0614677068441782E+00
O    6.8825857356122366E+00    6.4084220847945126E+00    2.5046902581440738E+00
O    3.8180799995398003E+00    6.6391276583280980E+00    3.7786506828598170E+00
O    6.5639457974898923E+00    8.3081696931559890E+00    8.8142644496195732E+00
O    9.7792965800928204E+00    1.3440562766331357E-01    3.8518038249085209E+00
O    4.1040770115658418E+00    1.1645978558721318E+01    2.2167390496173147E+00
O    5.3225394392111616E+00    8.7370879819812011E+00    2.7520568939068561E+00
O    1.0008064086737196E+01    5.3735087324374184E+00    5.3757728940149470E+00
O    1.2260297782908722E+01    8.6464340629357181E+00    3.9709777917872322E+00
O    2.3431345497117086E+00    1.0747243885368858E+01    6.8128217267251223E+00
O    7.0016612916653491E+00    6.6240597665991707E-01    1.0534341561687878E+01
O    5.1725047982212988E+00    1.0218495319125228E+01    1.0357205957141430E+01
O    1.1186316801594460E+01    5.8851524495734084E+00    1.0299193203865759E+01
O    1.2277001782589700E+01    8.9569716794258412E+00    9.0707884188587080E+00
H    1.2357840653884530E+01    2.3335995753222374E+00    1.1187202568867331E+01
H    1.1946181003856005E+01    1.5338243304145787E+00    9.8820686313880479E+00
H    5.5871540556992993E+00    3.4492983737430207E+00    9.0442905792533228E+00
H    6.8930493554912164E+00    3.0239782285801526E+00    7.9852283560217945E+00
H   -1.4374297116791959E-01    1.5098214846075337E+00    7.5263531243305009E+00
H   -3.8865416711509831E-01    3.0530974755005484E+00    7.9298823362641562E+00
H    1.2176354233151764E+01    2.9746344065120649E+00    1.1924463434423445E+00
H    1.2991627169715414E+01    2.9143170210545630E+00    2.5155346727349399E+00
H    1.1517585159650924E+01    4.3255122446520238E+00    1.1434691026736109E+01
H    1.2784953658522607E+01    5.0635466714148247E+00    1.2040055000822825E+01
H    6.9671401310515115E+00    1.7387343976965923E+00    4.1849967664892533E+00
H    6.2296009063342712E+00    6.8946782722671207E-01    5.1579113656955533E+00
H    7.7273594948740216E+00    7.2216808381006761E+00    5.4888761780284803E+00
H    9.1691701765480307E+00    6.6296086345002374E+00    4.9460727574882588E+00
H    1.2846883768257200E+01    1.1781070688347803E+01    8.9005192602398271E+00
H    1.1983330930253743E+01    1.0563456761596346E+01    8.3168613221521923E+00
H    3.5249173108184668E+00    3.8402074967240822E+00    9.9510006399901734E+00
H    2.4297337650180486E+00    4.9330989925193567E+00    9.5245628999137448E+00
H    2.1731627523322388E+00    4.5583640086459702E+00    6.3013579985289168E+00
H    2.8563500932210166E+00    3.8576048156108356E+00    7.5841394106044637E+00
H    1.1402120515030458E+00    7.1967347480523438E+00    1.1594244541642864E+00
H    2.2451038169257260E+00    6.0044688738684808E+00    1.0028737587397549E+00
H    2.8159635337989628E+00    8.9701748198824713E+00    2.2995199891601690E+00
H    1.3289544665057167E+00    8.9939926467798408E+00    2.8983257079426701E+00
H    4.4550218369064316E+00    1.1540339425003786E+01    9.1644203320315132E+00
H    3.0505860859901555E+00    1.2474023132571631E+01    9.2862357274691156E+00
H    5.8591510063953836E+00    3.4580809397755088E+00    3.6616773633307416E+00
H    5.8328342793240120E+00    3.4003555439709281E+00    1.9823495664218473E+00
H    9.5573469725953686E-01    1.6451477306432021E+00    4.8407733836346472E+00
H    2.2282991647300117E+00    2.4813299829894109E+00    5.6872650230015918E+00
H    8.4431290012357820E+00    1.6050270153561799E+00    7.5442513472487107E+00
H    8.0660702671730480E+00    2.0137128293825315E+00    6.0338191030233999E+00
H    5.2179579256212367E+00    2.8944435585790309E+00    1.1676379626021317E+01
H    6.6808372388709811E+00    3.4137338960724981E+00    1.1974227321954839E+01
H    1.0787628803146786E+01    6.5181395670638622E+00    2.0987991922637841E+00
H    1.1679773573101905E+01    5.3602522151474661E+00    1.3423877172513401E+00
H    3.4353203684200944E+00    1.5422281194349414E+00    1.0899348788958486E+01
H    4.8360131199373937E+00    1.4266306188286697E+00    1.0089887937303764E+01
H    4.3860802582001517E+00    3.3639520802575578E+00    5.6883523933759035E+00
H    5.6851424648164111E+00    4.3694414775809598E+00    5.5473743673655420E+00
H    6.2905172776232483E+00    1.1824099733745117E+01    1.7188529435634561E+00
H    5.6254822935019035E+00    1.2118652077613307E+01    3.2827489265251275E-01
H    3.5448338646087665E+00    1.3905272139789460E+00    2.1815170599112275E+00
H    2.6082617908454404E+00    2.2011793681995462E+00    3.2448585926837059E+00
H    7.1214310944124541E+00    5.8746986475795460E+00    7.5240902705229677E+00
H    8.6555160452211677E+00    5.7349833608766465E+00    7.0296645633617114E+00
H    6.0004465275637919E+00    5.6511979030140838E+00    1.1673025686980450E+01
H    6.2576534574142331E+00    6.3249880564333258E+00    1.3168261180251783E+01
H    1.1110393485509674E+01    1.2636559250997745E+01    1.1695509562619796E+01
H    1.0264574453193072E+01    1.2297166054267034E+01    1.3044673119309865E+01
H    9.9063257583774753E+00    4.0523254539285398E+00    2.7328096710825127E+00
H    8.5320976562309490E+00    3.4662435851513380E+00    2.9418258347988817E+00
H    1.4549325922390666E+00    6.6684406032651831E+00    7.1063381287415570E+00
H    1.0013233336714646E+00    6.1758231958588548E+00    5.6553319488927940E+00
H    7.9834584102595736E+00    3.6965662970361497E+00    9.9295362401110232E+00
H    8.0702893407895555E+00    2.3148727995363783E+00    1.0750118168090841E+01
H    1.1741851247338404E+01    1.0457041172522723E+01    1.2099135806994999E+01
H    1.2145140467201148E+01    8.9346530857762474E+00    1.2412210742863904E+01
H    3.3373535314763219E+00    7.6121200308663575E+00    7.8531045761947400E+00
H    3.8438071109318943E+00    6.2417161568826147E+00    8.6114175129811112E+00
H    3.1132077807621181E+00    7.6196920981180849E+00    1.1070308623803422E+01
H    4.4752997918973056E+00    7.6309327249733236E+00    1.2076616644960191E+01
H    1.1595109347938260E+01    4.9846383472200548E+00    7.0588447442737126E+00
H    1.0300198428130049E+01    4.1359917521739646E+00    7.3179795841144513E+00
H    1.0066803629044992E+01    8.9449101926873009E+00    1.8648409458417907E+00
H    9.5721275817977975E+00    8.2654871620121568E+00    4.9820470823347346E-01
H    1.3188214514401861E+00    6.6901027276304443E+00    9.6503048603154014E+00
H    1.4021624816982678E+00    6.4512365186899343E+00    1.1227722789148007E+01
H    4.1225373888742149E+00    1.3301382656579865E+00    5.2661059713495062E+00
H    4.6863100279914525E+00    6.4323888154086029E-01    6.6181558656210564E+00
H    9.4703533710556265E+00    1.2334177792058691E+01    8.7409520154268030E+00
H    8.8486737260978039E+00    1.1353175343935302E+01    7.5414016813725899E+00
H    1.7346635260622556E+00    1.0023247752455054E+01    1.4531246290919064E-01
H    3.3374323737183822E+00    9.8445600332827521E+00   -2.3573946363658363E-01
H    7.0505799823415218E+00    1.1506005604268196E+01    4.1255571139592133E+00
H    6.4716019298310359E+00    9.9354966266936700E+00    3.7910911532762599E+00
H    1.3268589592356705E+00    5.8377393429742297E-01    1.1128929736800069E+01
H    2.5223619020799206E+00   -5.4513600115592775E-01    1.1460522258348810E+01
H    8.7695024945573934E+00    1.8730405160142864E+00    9.9029984538937010E-01
H    8.0908940305250230E+00    3.3984351975116689E-01    9.9164118000547896E-01
H    1.1203607709249128E+00    8.3716512006964603E+00    8.1792323344821050E+00
H    2.0883187077761445E+00    8.9941496096231184E+00    7.0138877035387894E+00
H    8.9092455661164234E+00    7.7938840102099922E+00    9.2222118549490659E+00
H    9.0650442925884462E+00    8.4492400512116639E+00    1.0614283870982494E+01
H    1.0125293357174341E+01    7.6972294325276209E+00    6.4507709233847716E+00
H    1.0499855152540464E+01    9.1992705817147744E+00    6.1555311709797929E+00
H    3.4971231604226580E+00    3.9586904012080582E+00    2.1122844778207939E+00
H    4.0584146620671344E+00    4.5845739999386508E+00    7.4299547661184628E-01
H    7.3547300979709629E+00    9.3907717765816869E+00    1.2034662471097802E+01
H    7.3341917810683519E+00    7.7711469163738434E+00    1.2054219542752900E+01
H    7.8271815569076493E+00    1.0161811172290484E+01    5.7814619639485390E+00
H    7.7120113817893081E+00    9.5092512996359844E+00    7.2843726304684218E+00
H    5.2899463871899668E+00    6.4889429596085462E+00    6.3929757321029062E+00
H    4.8678252868842327E+00    6.3175211180865514E+00    4.8313586361429035E+00
H    1.1521862541305458E+01    2.1923283626800090E+00    4.2496614328182343E+00
H    1.1222791846958158E+01    7.8414795598371601E-01    4.7829538343864897E+00
H    8.8119942350226328E+00    9.6778779613697719E+00    3.9666686831547526E+00
H    9.9342844970871340E+00    1.0814156988791478E+01    3.7816372858598499E+00
H    3.1082289528956846E+00    1.0546326407174785E+01    5.2868803913861093E+00
H    4.3132584907103055E+00    1.1455620653057974E+01    5.0610780320727571E+00
H    4.2220406784312836E-01    7.3045102192447002E+00    3.8013135649944103E+00
H    2.9772343931228473E-01    5.7724401932041767E+00    3.4526995513592373E+00
H    7.5860591209724033E+00    6.5678847601548842E+00    3.2915836809347696E+00
H    6.6758385347288707E+00    5.3831754309176025E+00    2.5200133494030386E+00
H    3.8532534172202602E+00    6.3060046348703205E+00    2.8123783749707374E+00
H    2.7953246440736192E+00    6.5485847389783540E+00    3.9537741358613276E+00
H    5.5553176437610707E+00    8.0120599991623962E+00    8.6583941104732869E+00
H    6.9993930795504209E+00    7.4780238970679829E+00    8.4104344163924445E+00
H    9.5571588990614345E+00    7.3280446145762146E-01    3.0174818797266103E+00
H    8.9237164310792796E+00    1.3437510586118456E-01    4.4076447871974480E+00
H    3.8482457315661920E+00    1.1174438455171641E+01    1.3441470566655216E+00
H    3.9626056228568460E+00    1.0964278466897898E+01    3.0102551897948286E+00
H    5.9449661422375515E+00    7.8891857853092153E+00    2.7995741535955974E+00
H    4.7652120121312196E+00    8.7229381074890853E+00    3.5906717261665873E+00
H    1.0905815782848222E+01    5.5302201800693833E+00    4.9342869455824854E+00
H    9.5033245323315665E+00    4.6732708376727290E+00    4.7171193166486010E+00
H    1.1491942104117083E+01    9.0018887406784014E+00    3.3983649908359794E+00
H    1.1959903629038024E+01    8.7851547644295849E+00    4.9401026898653901E+00
H    2.9404439844274193E+00    1.1333326721637908E+01    7.4881123877733291E+00
H    1.3993518978819217E+00    1.1120275827042592E+01    6.8063456551226542E+00
H    7.2181951384389400E+00    1.2809608485302182E-01    9.7032371258684336E+00
H    7.1648660378594720E+00    1.0772078745099023E-01    1.1367500988399534E+01
H    4.8113412051052418E+00    9.3237474535610083E+00    1.0837702423612194E+01
H    6.0816481698037244E+00    9.8060697913097634E+00    1.0186927365163450E+01
H    1.0565212262637925E+01    6.7306908548551831E+00    1.0314443980528381E+01
H    1.1239043366237242E+01    5.5938377372080277E+00    9.3143651163970578E+00
H    1.2188456954752009E+01    8.9927460848987195E+00    1.0127821223537262E+01
H    1.1415764242457136E+01    8.6329965781037892E+00    8.6365688433576437E+00
     &END COORD
     &VELOCITY
           2.4353373553193520E-04   -1.2006097602726519E-04    8.6380096430806086E-05
           5.1311970176928632E-05   -1.2708266220869034E-06   -1.4048482607284958E-05
          -1.3298767757267060E-04   -8.3910828187297212E-05   -1.7227772179773121E-04
           3.2311111387332868E-04   -2.8974228281305456E-04    2.2815855771209833E-04
           3.6807112799978209E-04   -1.6540691872603621E-04    8.2168021724998472E-05
           8.6843810076484701E-05   -1.6733145784881168E-04    2.3233906169682457E-04
          -1.9144732815836647E-04    3.6490306371468713E-05    1.7692428816135994E-04
          -2.7339212137246466E-04   -2.0181330299006557E-06   -2.5185283188803573E-04
          -2.9114797156417515E-04    1.4202524657061578E-04   -9.4207613530947497E-05
           4.9604684380021399E-05    1.9764986075697190E-04   -3.9675655902212896E-05
          -1.0338266295958883E-04    2.5533554886887795E-04   -1.7753567722950933E-04
           1.2393271803246594E-04   -5.1522817966280015E-05    2.4869105054673243E-04
           3.7171385612085151E-05    1.3912087635367936E-04   -2.6001104941453679E-04
          -9.0584380437609731E-05   -5.4256969624810263E-05    1.3571849163595856E-04
          -1.3532069034337456E-05    2.9312535024599191E-04   -1.1035216194559236E-04
           3.4365663856435067E-04    1.2592891247651910E-04    1.2984947778206684E-04
           3.1061310688746851E-05   -2.1491061234556031E-04    1.3642911352244739E-04
          -1.1197980598915323E-04    8.8708519146164905E-05    8.1551359028941308E-05
           7.2553977148629638E-05   -7.4882564047580282E-05   -3.7593240433723729E-05
          -3.9311008769600209E-05    7.7794970773041808E-05   -4.9503853883134925E-05
           1.3050850736504369E-04    3.2997372841166553E-05    2.3384938882030555E-04
          -2.3506710107422111E-04   -1.3038351983511937E-04   -7.8872779762107504E-05
           2.2656471396021469E-04    3.8984618356636899E-06   -1.0674489559194181E-04
          -4.8910812396606531E-04   -8.8250996371508103E-05    4.1168871695802281E-05
          -2.3516505104718684E-04    3.0141522873903319E-05   -4.3307021529896244E-05
           2.3874077440020844E-04    1.6479626533092291E-04   -6.5961174405811916E-06
           2.1570400443113666E-06   -3.6687604474380830E-04    1.9056449025672522E-05
           1.5263290746232890E-04   -4.5423683353144878E-05   -4.7828240985562367E-05
          -2.4361660474352592E-04   -1.5799538490388252E-04    1.4701044899532916E-04
          -4.6332302277319917E-05    6.6958418739985318E-05   -1.4093723621219363E-04
           7.0402526351456650E-05    1.4787938508811242E-04    2.3294646136282131E-04
          -1.0541845847309536E-04    9.0959878374674382E-05    1.4239486316513199E-04
           3.9447066267180763E-04    6.7697585287488030E-05    1.1078543440113978E-04
          -7.7642050392870079E-05   -1.2536442818886630E-04   -1.9896428319563146E-04
           4.0834731830846312E-04    1.4767279244941073E-04    2.0697580191111045E-05
          -2.3059415804813684E-04   -1.2069261926458770E-04    1.1528847271955068E-04
          -2.2453224222706658E-04    3.2508315209938001E-04   -1.1011175869294808E-04
          -2.5223464560028313E-05    3.9102949516699767E-04    1.6353834116422149E-04
           2.2717843316562761E-05   -6.2765751658696316E-06    4.4671040030406100E-05
          -2.2749659830480356E-04   -6.9576305516619991E-06    6.3788388336699636E-05
          -7.5841302717467637E-05    8.7087799011625230E-05   -2.6939094015296074E-04
          -1.5166914072086254E-04   -1.6482446184695220E-04   -8.8619423404514560E-05
           8.3255811685987335E-06   -5.3065384633250733E-05   -7.5044278376508079E-05
           6.6403553282663724E-05    1.1865592146478780E-04   -1.6876922794253869E-04
          -3.6854176965755363E-04   -4.4916679521310129E-04   -7.2212204725892860E-05
          -1.2514834926169173E-04   -2.1658705550333502E-04    1.4279407556835797E-05
           1.5301292386234508E-04    7.8212466735769502E-05   -2.6042789655749619E-04
           1.1597437780934572E-04    1.3153166326692220E-04    1.9714489345456742E-05
          -2.7586288470994542E-05    4.9135802994329399E-05   -8.2847135185465119E-05
           1.7533037836979279E-04   -1.0200057779026492E-04   -1.5955910871499655E-05
           9.1305293479675682E-06   -1.7063363096511274E-04   -1.2704533408649932E-04
           2.0532414020125157E-04   -1.8523108330935239E-04    1.5576953260112864E-04
          -9.5082342049590361E-05    3.8898283928798824E-04    6.8143354604015789E-05
          -3.3468517684820540E-05    1.1413973594404575E-04    4.8372670606203831E-05
          -3.2167308793971841E-04   -6.7373694363478059E-05   -3.3440505798264502E-04
          -1.0565699375519769E-04   -1.8612919959367462E-04   -4.1185047197034278E-05
           3.0227443463967679E-04   -1.9476821950166060E-08   -4.0898192670968305E-05
           3.4132859751264332E-04   -7.5666618757216773E-05    3.1369871723561129E-04
           4.8774504453175832E-06    9.5432986765663989E-05    4.0463993790041723E-05
          -7.3525642129698601E-05   -1.1023344657222173E-04   -1.6990266178698482E-04
          -9.5305467322476177E-05    1.5924492797707819E-04    1.0050784054823244E-04
           2.9577992716557601E-04   -2.0302338272275804E-04   -3.8000268537625253E-06
           3.3426751499027959E-05    2.9960856874528219E-05    2.2957098673709795E-05
           2.1247046209904428E-04   -1.8773508816513911E-04   -7.1323934923152386E-05
          -4.5158839413320112E-04   -3.6143060080003292E-05   -6.1976176340859429E-04
           9.6706711087418966E-04   -4.1494673937640767E-04   -1.4270244722096319E-03
           7.4657709739648173E-04    7.4979183342051747E-04   -2.9716006663318983E-05
           1.1944835029979331E-03   -2.4887952168811342E-04   -4.6965328167910408E-04
           3.3415678178536973E-04   -4.4057529885748831E-04   -4.5347033646125852E-04
           1.1012796129970294E-03    2.9083917956716993E-04   -1.2194190254976875E-03
           2.2415342341030938E-04    1.5937251548657871E-03   -3.7781211911206368E-04
           1.0073465758478535E-03   -6.8157982681040126E-04    2.6183752026054001E-04
          -6.9769183675690396E-05    2.4841597129626298E-05   -1.3349984301816513E-04
          -6.5395783733068486E-04   -1.1729839027297759E-04    1.7209949839644797E-04
          -6.3912725034633315E-04   -9.4833908165769967E-04   -2.5753189732551790E-04
          -3.9187509728936713E-04   -2.4417797176504836E-04   -5.0822500047578982E-04
           2.8904185306565867E-04   -2.0455475311277039E-03   -7.4488003301446601E-04
           3.8533435943932957E-04   -1.5649598638861311E-03   -8.1999331588952491E-04
           6.6163782210816005E-04   -2.0530137993692667E-04   -4.7022778534943905E-04
          -4.8571775221668251E-05   -1.4283455067361007E-03    8.4970777263655652E-04
          -5.1040502072332173E-04    9.0124041077157028E-04   -4.3717828658207218E-04
           2.7962496773413113E-04    1.1112791910058767E-04   -5.6980553869534381E-04
          -1.5080494509469590E-03    7.3672779723223992E-04   -5.7541529060965024E-06
           2.4475429620316315E-04    9.7437756642450237E-04   -4.8339679943145770E-04
          -8.5981680076335391E-05    5.9512037265710633E-04   -4.8949501761894493E-05
          -6.8266467565692107E-04   -5.5567223333171257E-04    7.1350489601013317E-04
           4.8033714507979738E-05    6.5011279415367338E-04   -7.7943973949953956E-04
           8.0491911082582383E-05   -7.8343749751155507E-04    7.2435736498745141E-04
           2.5839724571940354E-04    7.5578985183635355E-05   -5.8507007756835108E-04
           3.2468632064001110E-04   -2.7324024723490411E-04    2.5249479695278835E-04
          -1.0539062839307212E-03    5.0616494373565833E-04    7.1049452487150833E-04
           8.0541579376914576E-04   -1.4428395473046056E-04   -9.1111624630122498E-04
          -9.3901405509367426E-05   -1.7440336410071968E-04   -6.6695306718399954E-04
          -5.9667439632153890E-04    2.1020879938563946E-03   -1.6524975844682104E-04
          -5.9413689338589303E-04   -1.8314218673668735E-04   -3.0878549940083119E-04
          -1.1299139623374212E-04   -1.9706794256798193E-04    5.4164798332790220E-04
           3.7379192866103121E-04   -2.2187500989567986E-04   -3.6215118741791323E-04
          -5.2111287107047411E-04    8.9091209793836076E-04   -5.6207250900734099E-04
           6.7919292607169124E-04    1.3343181452977766E-04   -5.4958333088951921E-04
          -5.0955912356487799E-05   -7.8811310899124659E-04    5.3306738440318520E-04
          -8.4615276344053938E-05   -4.3969810880245438E-04   -1.5061331385019551E-03
           1.9621493944104446E-04    7.0658921104263897E-04    7.9834173948825356E-04
          -3.1086266728728762E-04    7.4710976671484746E-04    4.9983161015184415E-04
          -7.7088036733929076E-04    8.7923123999928158E-04    4.4906439902620254E-04
           4.7843808737583457E-04    2.0885304143285015E-04    9.9081078442255226E-04
           2.7383478090272099E-04   -1.2076470177458356E-05    2.0312636572823242E-03
           2.2238602224906894E-04    4.5732113707404505E-04    2.0297495633989143E-03
          -1.3983314819760587E-04    6.4110517558898573E-04    2.3541721875084071E-04
           1.0634351963889966E-03   -8.1406755449907960E-04    2.5592615927176414E-04
           5.5764666825118721E-04   -2.4944020395151927E-04    1.0095491375578601E-03
           8.2355304834132636E-04    4.6265598280957523E-04    1.0873683440537636E-03
           1.0554542732430453E-03    1.4711843503878218E-03   -1.9257994645621902E-04
          -5.9301436633780948E-04    1.4338243179759240E-03   -1.0518598720446431E-03
           1.7009542630849690E-04   -2.7229621442057829E-04   -1.8275874435235448E-04
          -3.9794180044311377E-04    1.1377334676043473E-03    1.5111872074402921E-04
          -2.1010779021828045E-04    2.5908254733536746E-04    1.2965840740926816E-03
           5.7014687400826452E-04    4.3663748724754919E-04   -1.4622705924018488E-04
           2.7451658005741409E-04   -1.1055104188208120E-04   -2.7011911349040661E-04
          -1.5488517944055008E-03   -4.8268639177636528E-04    1.0661735520072738E-03
           1.1223093816703633E-04    6.1336181168747514E-04   -2.4337739021761790E-04
          -8.4642821008120643E-04    2.7314900746769095E-04    4.4966165017947760E-04
          -9.0281864256829111E-04    4.6471968390537097E-04   -2.6632644265497745E-04
          -1.1909602595348147E-03    3.2546725746574148E-05   -5.5177771596606436E-05
           2.6878284876349451E-04   -1.1019214431417753E-03    6.7804196598120062E-04
           3.1926309386371907E-04    1.0177813137443301E-03   -3.0847823992800926E-04
          -4.2284471691130313E-04    4.3959034011218056E-04   -8.2960000475662836E-04
           4.5763012011790628E-04   -7.2873611066022405E-04   -1.9810871952240564E-04
          -2.5435809607034384E-04   -2.9857092395443099E-04    4.0812967127975527E-04
          -1.7369381693784579E-04    6.5701533354517807E-04    1.2674523034198312E-03
           2.5615963333992093E-04   -1.0911306481811166E-06    1.1679000472798083E-03
          -1.6308109913807203E-05    1.3149337651534468E-03    1.0407917755372463E-03
           8.9763869706955320E-04   -3.3652501424353285E-04    5.8254652407102689E-04
           1.0486726918907581E-03    1.4387708623838115E-04   -1.3227328925019247E-03
          -7.1280006661851776E-04    3.7576614694296033E-04   -7.8229807966902014E-04
          -4.9597517553780323E-05    2.0943390432166611E-05   -3.3577883356941137E-04