 # Version information for this restart file 
 # current date 2023-08-03 13:47:21.489
 # current working dir /mnt/lustre/indy2lfs/work/tc047/tc047/mrnuff-cirrus/cp2k/nuff-benchmarks/H2O-64-4node
 # Program compiled at                               Wed Aug 2 15:51:15 BST 2023
 # Program compiled on                                             cirrus-login2
 # Program compiled for                                             Cirrus-intel
 # Source code revision number                                       git:d8d7100
 &GLOBAL
   PRINT_LEVEL  LOW
   PROJECT_NAME H2O-64
   RUN_TYPE  MD
 &END GLOBAL
 &MOTION
   &MD
     ENSEMBLE  NVE
     STEPS  10
     TIMESTEP     4.9999999999999994E-01
     STEP_START_VAL  10
     TIME_START_VAL     4.9999999999999982E+00
     ECONS_START_VAL    -1.1007623251464963E+03
     TEMPERATURE     3.0000000000000000E+02
     &AVERAGES  T
       &RESTART_AVERAGES
         ITIMES_START  1
         AVECPU     2.9740499289007856E+00
         AVEHUGONIOT     0.0000000000000000E+00
         AVETEMP_BARO     0.0000000000000000E+00
         AVEPOT    -1.1010668154404116E+03
         AVEKIN     3.0069890126034038E-01
         AVETEMP     3.3142439675492528E+02
         AVEKIN_QM     0.0000000000000000E+00
         AVETEMP_QM     0.0000000000000000E+00
         AVEVOL     1.2909542132085600E+04
         AVECELL_A     2.3458682268415796E+01
         AVECELL_B     2.3458682268415796E+01
         AVECELL_C     2.3458682268415796E+01
         AVEALPHA     9.0000000000000000E+01
         AVEBETA     9.0000000000000000E+01
         AVEGAMMA     9.0000000000000000E+01
         AVE_ECONS    -5.7036316450609306E+00
         AVE_PRESS     0.0000000000000000E+00
         AVE_PXX     0.0000000000000000E+00
       &END RESTART_AVERAGES
     &END AVERAGES
   &END MD
 &END MOTION
 &FORCE_EVAL
   METHOD  QS
   &DFT
     BASIS_SET_FILE_NAME GTH_BASIS_SETS
     POTENTIAL_FILE_NAME POTENTIAL
     &SCF
       SCF_GUESS  ATOMIC
       &OT  T
         MINIMIZER  DIIS
       &END OT
       &PRINT
         &RESTART  OFF
         &END RESTART
       &END PRINT
     &END SCF
     &QS
       EPS_DEFAULT     9.9999999999999998E-13
       EXTRAPOLATION  PS
       EXTRAPOLATION_ORDER  3
     &END QS
     &MGRID
       CUTOFF     2.8000000000000000E+02
       REL_CUTOFF     3.0000000000000000E+01
     &END MGRID
     &XC
       DENSITY_CUTOFF     1.0000000000000000E-10
       GRADIENT_CUTOFF     1.0000000000000000E-10
       TAU_CUTOFF     1.0000000000000000E-10
       &XC_FUNCTIONAL  NO_SHORTCUT
         &PADE  T
         &END PADE
       &END XC_FUNCTIONAL
     &END XC
   &END DFT
   &SUBSYS
     &CELL
       A     1.2413800000000002E+01    0.0000000000000000E+00    0.0000000000000000E+00
       B     0.0000000000000000E+00    1.2413800000000002E+01    0.0000000000000000E+00
       C     0.0000000000000000E+00    0.0000000000000000E+00    1.2413800000000002E+01
       MULTIPLE_UNIT_CELL  1 1 1
     &END CELL
     &COORD
O    1.2265691221627931E+01    1.3554379171423920E+00    1.0875430684012699E+01
O    6.4523069643984892E+00    3.7059062633719240E+00    8.6472636643113567E+00
O    7.7675673951355509E-02    2.1684371536246245E+00    8.2608521123256420E+00
O    1.2086330589737107E+01    2.6383252619362256E+00    2.1708326975636605E+00
O    1.2290560196510285E+01    4.1705949204699806E+00    1.2102197043947422E+01
O    7.2035596726110001E+00    9.4146485856912543E-01    4.7596718561381302E+00
O    8.3332223409533519E+00    7.2077504740971641E+00    4.6827221582125969E+00
O    1.2331825707496048E+01    1.1521085308244926E+01    8.0815299734465924E+00
O    3.2742345188961774E+00    4.4591086965600164E+00    9.1745403213677186E+00
O    2.8601595120416219E+00    3.7871245016871993E+00    6.5410915744246934E+00
O    1.3797112886109735E+00    6.3917880581901168E+00    5.6509704637620128E-01
O    1.8717761880990735E+00    8.6859262981941612E+00    2.0908519529191203E+00
O    3.7724064802103436E+00    1.2107291458155805E+01    8.6206045004982190E+00
O    6.4253589961829949E+00    3.6667889351994116E+00    2.7875811960065584E+00
O    1.9996776817698512E+00    1.8525814940778189E+00    4.8671276287697003E+00
O    8.2870232697559860E+00    2.4222003421165024E+00    6.9417328333568387E+00
O    5.7524951496893264E+00    3.3354107633529009E+00    1.2486441927304288E+01
O    1.1313051414990088E+01    5.6568428932996468E+00    2.2481541693217553E+00
O    4.2889057121707630E+00    2.1146768890844916E+00    1.0586394798004836E+01
O    5.3987998378703228E+00    3.3584238927998591E+00    5.4860023554711690E+00
O    6.5093881290544253E+00    1.1870556687544097E+01    7.1448877052669424E-01
O    3.2525895246416519E+00    2.3434817325715134E+00    2.4132492711214546E+00
O    8.0086831362982220E+00    6.3565304698358736E+00    7.4977786194835803E+00
O    5.9288605826881096E+00    6.5082868323258696E+00    1.2195795095729435E+01
O    1.0610386311436509E+01    1.1861263632461061E+01    1.2200578573099007E+01
O    9.3403643295945145E+00    3.6891058088922457E+00    3.5273419115089277E+00
O    1.1111299843541218E+00    5.7890416771149678E+00    6.6473030303814831E+00
O    8.0194980711238166E+00    3.3269761635710342E+00    1.0869760158477504E+01
O    1.2376083013546708E+01    9.6748017485163924E+00    1.1772437464201856E+01
O    4.2098973265835369E+00    7.0914059878457065E+00    8.1403049713510747E+00
O    3.7839651612970533E+00    8.2290477965539282E+00    1.1585029598452719E+01
O    1.1076298200094971E+01    4.5429098149790708E+00    7.8327544665100834E+00
O    1.0435269832523142E+01    8.4217540714630559E+00    1.0328469115847729E+00
O    1.9827956974872518E+00    6.4005653370061628E+00    1.0353833557955893E+01
O    4.7041684252649514E+00    5.6226860857455696E-01    5.6097297040744492E+00
O    8.7178686987317136E+00    1.2242114021519123E+01    8.0976596680829278E+00
O    2.6327397232809222E+00    1.0520524625894511E+01    8.2914708818934160E-02
O    7.2399912123022174E+00    1.0511639516828570E+01    4.2432763972059844E+00
O    2.2807117212628101E+00    2.7612433538579534E-01    1.0807249794939528E+01
O    8.8632074472443581E+00    9.4642167576059466E-01    1.3400870233089792E+00
O    1.9443010564853960E+00    8.0893907787971511E+00    7.5354954085064989E+00
O    9.6598268770605902E+00    8.0354923931291591E+00    9.8565408159862020E+00
O    1.0903669231891211E+01    8.3307122625610077E+00    6.4773119488925168E+00
O    3.5124665132315265E+00    4.8693737552338101E+00    1.5451810315134296E+00
O    7.9775887181865208E+00    8.6026768360209811E+00    1.2050859810705306E+01
O    8.3694028848612128E+00    1.0019375195784667E+01    6.6836126003785692E+00
O    5.6546609223314519E+00    6.0810554249666167E+00    5.5283899539327361E+00
O    1.1742552751790603E+01    1.6241883377932054E+00    5.0859546263627884E+00
O    9.7585749951473701E+00    9.8110344561912957E+00    3.5364834297912893E+00
O    3.9627902122681360E+00    1.0548916241539374E+01    4.6848631718496607E+00
O    9.0110924202405385E-01    6.3699160958047747E+00    4.0614660823325712E+00
O    6.8825876156876076E+00    6.4084176011472742E+00    2.5046872105492248E+00
O    3.8180772811827248E+00    6.6391261700161266E+00    3.7786504202964797E+00
O    6.5639467316230151E+00    8.3081673455500766E+00    8.8142645601751273E+00
O    9.7792980437881400E+00    1.3440093692240354E-01    3.8518018541300432E+00
O    4.1040698796140092E+00    1.1645975677414327E+01    2.2167371830935751E+00
O    5.3225429743820838E+00    8.7370886225245812E+00    2.7520608154200938E+00
O    1.0008058591962509E+01    5.3735029665407961E+00    5.3757689310938455E+00
O    1.2260293130221433E+01    8.6464312203551188E+00    3.9709765249997826E+00
O    2.3431385601209915E+00    1.0747244557908941E+01    6.8128199420223421E+00
O    7.0016868551874083E+00    6.6241368924081856E-01    1.0534335410490790E+01
O    5.1724988369890497E+00    1.0218489635932984E+01    1.0357201131261711E+01
O    1.1186305513789579E+01    5.8851551015739396E+00    1.0299187716035565E+01
O    1.2277001260224317E+01    8.9569800093949468E+00    9.0707829070917416E+00
H    1.2357860830731793E+01    2.3336130669253161E+00    1.1187155568543400E+01
H    1.1946220241711258E+01    1.5338173488074984E+00    9.8820453883928838E+00
H    5.5871853426088132E+00    3.4492613541409360E+00    9.0443492587055889E+00
H    6.8931134907708973E+00    3.0239505626690266E+00    7.9852740730676377E+00
H   -1.4374932807744759E-01    1.5098328419610472E+00    7.5263433502058712E+00
H   -3.8863081470371069E-01    3.0530889725933901E+00    7.9297897962465687E+00
H    1.2176296489828452E+01    2.9747369580386067E+00    1.1924332874811130E+00
H    1.2991672705128620E+01    2.9142153785987950E+00    2.5155247900314586E+00
H    1.1517567593231858E+01    4.3255900368446651E+00    1.1434680677252963E+01
H    1.2784986513018204E+01    5.0635244336048428E+00    1.2040091012079040E+01
H    6.9670622346701467E+00    1.7387225601621219E+00    4.1850000735929420E+00
H    6.2296039666331193E+00    6.8947303211091848E-01    5.1579542956580733E+00
H    7.7273735081137280E+00    7.2217674062567534E+00    5.4888583172763150E+00
H    9.1692072167871537E+00    6.6296203275140337E+00    4.9460943069404779E+00
H    1.2846855747609707E+01    1.1781022044301082E+01    8.9005547148165132E+00
H    1.1983278974113915E+01    1.0563476629178268E+01    8.3168526530915461E+00
H    3.5248483355808582E+00    3.8400890178709974E+00    9.9509258876192384E+00
H    2.4297317699943779E+00    4.9331020171899329E+00    9.5245232744316581E+00
H    2.1731938184002946E+00    4.5584091436371539E+00    6.3013341591597101E+00
H    2.8564526256042964E+00    3.8576860117974507E+00    7.5841383258265429E+00
H    1.1402539117556081E+00    7.1967454275138616E+00    1.1594208983718408E+00
H    2.2451171240554184E+00    6.0044560574521384E+00    1.0028292980710980E+00
H    2.8160026093261084E+00    8.9701473038211130E+00    2.2994247561325252E+00
H    1.3289450005948249E+00    8.9940773536409377E+00    2.8983100092882439E+00
H    4.4550591679044418E+00    1.1540320632851602E+01    9.1643576662467598E+00
H    3.0505711472947574E+00    1.2474005028879674E+01    9.2862522483545078E+00
H    5.8591666421271364E+00    3.4580100700774823E+00    3.6616851024567030E+00
H    5.8328742264892179E+00    3.4002922178484956E+00    1.9823307374076489E+00
H    9.5572611638987426E-01    1.6451712168315271E+00    4.8407909619534220E+00
H    2.2283444181420604E+00    2.4812713852573856E+00    5.6873030305147356E+00
H    8.4431245059902462E+00    1.6049877318589303E+00    7.5442116124543768E+00
H    8.0660994841679656E+00    2.0136933689786014E+00    6.0338203198001512E+00
H    5.2179741117745086E+00    2.8944033191690619E+00    1.1676399084693323E+01
H    6.6808709760189400E+00    3.4137078887783487E+00    1.1974300217660677E+01
H    1.0787579562973395E+01    6.5181197889747571E+00    2.0988579269069034E+00
H    1.1679706778665604E+01    5.3602110737705795E+00    1.3423727078773935E+00
H    3.4353057955578747E+00    1.5422699911176567E+00    1.0899340815425143E+01
H    4.8360485702945404E+00    1.4266340285649250E+00    1.0089916384864633E+01
H    4.3860607829045302E+00    3.3639145070871614E+00    5.6882685052594182E+00
H    5.6851714190646225E+00    4.3694444329673798E+00    5.5474154036564016E+00
H    6.2904804048387906E+00    1.1824217953334522E+01    1.7188480100644421E+00
H    5.6254641812453769E+00    1.2118531010247628E+01    3.2824508347067005E-01
H    3.5448573483477328E+00    1.3905341519237708E+00    2.1815279666970717E+00
H    2.6083113748095927E+00    2.2011598085359165E+00    3.2448945681041335E+00
H    7.1214218837230723E+00    5.8747071446836285E+00    7.5240572137578630E+00
H    8.6555160568688780E+00    5.7350202337792604E+00    7.0296204332787893E+00
H    6.0003836070029193E+00    5.6511562312009085E+00    1.1673082486798640E+01
H    6.2576732802190218E+00    6.3249637437984498E+00    1.3168254323635368E+01
H    1.1110396422511197E+01    1.2636582150483628E+01    1.1695466243763022E+01
H    1.0264522667314234E+01    1.2297177086809679E+01    1.3044653989288562E+01
H    9.9063833653605293E+00    4.0522743932582115E+00    2.7328440010559216E+00
H    8.5320879706477122E+00    3.4662362318686246E+00    2.9418373706986869E+00
H    1.4550165199538414E+00    6.6684268578473622E+00    7.1063081480779111E+00
H    1.0011846960111153E+00    6.1757849888513965E+00    5.6553257210843553E+00
H    7.9834383168152154E+00    3.6965600156462006E+00    9.9295254035483858E+00
H    8.0703050731561987E+00    2.3148761700540539E+00    1.0750109953178505E+01
H    1.1741856955038825E+01    1.0457046792694005E+01    1.2099116522328593E+01
H    1.2145113035773024E+01    8.9347057518293020E+00    1.2412278015077286E+01
H    3.3373441398216843E+00    7.6121189967397278E+00    7.8531113790445986E+00
H    3.8437404997801670E+00    6.2417170006995608E+00    8.6113781620860976E+00
H    3.1132048694107697E+00    7.6196674890885534E+00    1.1070334639356055E+01
H    4.4752609606008784E+00    7.6309535586688861E+00    1.2076672515554865E+01
H    1.1595109075910575E+01    4.9845971853208715E+00    7.0588086549215676E+00
H    1.0300179646157247E+01    4.1359780470034559E+00    7.3180405599937277E+00
H    1.0066859028657561E+01    8.9451142006844062E+00    1.8647420070760057E+00
H    9.5720897423752831E+00    8.2655563920175155E+00    4.9823227537656273E-01
H    1.3189876664555857E+00    6.6902311101741310E+00    9.6502228821051013E+00
H    1.4021547291057512E+00    6.4513381197013411E+00    1.1227717775738615E+01
H    4.1225227084820286E+00    1.3300958457233192E+00    5.2660310885246027E+00
H    4.6863014012487465E+00    6.4332081832310428E-01    6.6181574626618476E+00
H    9.4703739840673578E+00    1.2334173896527641E+01    8.7409121785595083E+00
H    8.8486705805519072E+00    1.1353162651343371E+01    7.5414161566644031E+00
H    1.7346243376507018E+00    1.0023269196055114E+01    1.4521089677738733E-01
H    3.3374330937769638E+00    9.8445733321795643E+00   -2.3578650080695268E-01
H    7.0506121547580607E+00    1.1505999570464065E+01    4.1254822367655413E+00
H    6.4716144239807516E+00    9.9355117782160871E+00    3.7910213271468143E+00
H    1.3268017188785322E+00    5.8361467399922395E-01    1.1128891425288034E+01
H    2.5223736851222460E+00   -5.4515284208246373E-01    1.1460505429957315E+01
H    8.7695034601090445E+00    1.8730261306346465E+00    9.9022339814262161E-01
H    8.0909040111767396E+00    3.3982611891736125E-01    9.9167137075848444E-01
H    1.1204885569466505E+00    8.3716616986635266E+00    8.1793585849231452E+00
H    2.0883466262745798E+00    8.9941815003034407E+00    7.0139251045159652E+00
H    8.9092338083701428E+00    7.7940115337034976E+00    9.2222012190835780E+00
H    9.0650360993651447E+00    8.4492997048302012E+00    1.0614237103704165E+01
H    1.0125261936622003E+01    7.6972651388062170E+00    6.4508008035740998E+00
H    1.0499882480553543E+01    9.1992905673857894E+00    6.1555510652610232E+00
H    3.4970438967310522E+00    3.9586491104197785E+00    2.1122397671539721E+00
H    4.0583866165583906E+00    4.5845492847974736E+00    7.4299433254020564E-01
H    7.3547019310358328E+00    9.3907165959532080E+00    1.2034560547161004E+01
H    7.3341204126242951E+00    7.7711803058269222E+00    1.2054181675346992E+01
H    7.8271359122354074E+00    1.0161864557796894E+01    5.7814824441730419E+00
H    7.7120973949995406E+00    9.5091968613052611E+00    7.2843865451266625E+00
H    5.2900515914214967E+00    6.4890676352473360E+00    6.3929667695953381E+00
H    4.8679125606970057E+00    6.3175498760843265E+00    4.8312977475731271E+00
H    1.1521813479055915E+01    2.1923134294365081E+00    4.2496119720285908E+00
H    1.1222779192576194E+01    7.8413521722506496E-01    4.7830452887771084E+00
H    8.8119906724501487E+00    9.6778997188624398E+00    3.9666598404570261E+00
H    9.9342635723548423E+00    1.0814166420179232E+01    3.7816690213250235E+00
H    3.1082412934276920E+00    1.0546280663961952E+01    5.2869156842281875E+00
H    4.3132121960850949E+00    1.1455647024803985E+01    5.0610955611755122E+00
H    4.2219844129775164E-01    7.3045251091105312E+00    3.8013411241080455E+00
H    2.9766507545150139E-01    5.7724531525171043E+00    3.4527167705322714E+00
H    7.5860409191409968E+00    6.5679521129191683E+00    3.2915919983255537E+00
H    6.6758593794492596E+00    5.3831662367035733E+00    2.5200074513620643E+00
H    3.8532901491626732E+00    6.3060011184120581E+00    2.8123839800105972E+00
H    2.7953202289156849E+00    6.5486583544769177E+00    3.9537589710662790E+00
H    5.5553109353381238E+00    8.0120428669700274E+00    8.6584496783237341E+00
H    6.9993998569157316E+00    7.4780307290168659E+00    8.4104207149776986E+00
H    9.5571587465052392E+00    7.3282222377275685E-01    3.0174934412141217E+00
H    8.9237161921949930E+00    1.3434744964862208E-01    4.4076415640867230E+00
H    3.8482518861390176E+00    1.1174452569524341E+01    1.3441132624696435E+00
H    3.9626527205396553E+00    1.0964284064940838E+01    3.0102559476073396E+00
H    5.9449721154893922E+00    7.8892003227197440E+00    2.7995602859871185E+00
H    4.7651318478104621E+00    8.7229145811688262E+00    3.5906365527452775E+00
H    1.0905855590462355E+01    5.5302297929430058E+00    4.9343939976041353E+00
H    9.5033533984917522E+00    4.6732861306341098E+00    4.7170650155462805E+00
H    1.1491935736740237E+01    9.0019296606962911E+00    3.3983882088428965E+00
H    1.1959938005669120E+01    8.7851571773517723E+00    4.9401248591307043E+00
H    2.9404442925200502E+00    1.1333366123652748E+01    7.4880999173573830E+00
H    1.3993361021506523E+00    1.1120249168991617E+01    6.8063795104243576E+00
H    7.2180390176119147E+00    1.2798394447467504E-01    9.7032741476542981E+00
H    7.1646531631432664E+00    1.0771817698157031E-01    1.1367537673088375E+01
H    4.8113494103453958E+00    9.3237233228418717E+00    1.0837722105749167E+01
H    6.0817040348704827E+00    9.8061889870779879E+00    1.0186961890390409E+01
H    1.0565212968846122E+01    6.7306912582551446E+00    1.0314509384118493E+01
H    1.1239212631589156E+01    5.5937306260539517E+00    9.3143955162382266E+00
H    1.2188441116721913E+01    8.9926759698745347E+00    1.0127830375806701E+01
H    1.1415745606508098E+01    8.6329943934293567E+00    8.6365927756282215E+00
     &END COORD
     &VELOCITY
           2.4352895689749133E-04   -1.2005787686876363E-04    8.6437472843092140E-05
           5.1308833496996456E-05   -1.2157267875875028E-06   -1.4102765547947053E-05
          -1.3301557325166795E-04   -8.3933401104587747E-05   -1.7228315507869854E-04
           3.2310035322865308E-04   -2.8975142829604212E-04    2.2821840321532048E-04
           3.6814672511762851E-04   -1.6545926054238564E-04    8.2260305156670063E-05
           8.6833533915125897E-05   -1.6730042257780250E-04    2.3230467888000006E-04
          -1.9151490594530751E-04    3.6505951846370647E-05    1.7677888658470102E-04
          -2.7334923677289403E-04   -2.0364577278353672E-06   -2.5180936275447086E-04
          -2.9104530009423568E-04    1.4206649360493445E-04   -9.4225803956324419E-05
           4.9611736872053735E-05    1.9755004721375022E-04   -3.9672360394401472E-05
          -1.0339976255382434E-04    2.5535991311234412E-04   -1.7751224400539830E-04
           1.2391364052895728E-04   -5.1653553927196187E-05    2.4858753532778886E-04
           3.7151260902386342E-05    1.3910103950689969E-04   -2.6002426241715271E-04
          -9.0568511030142320E-05   -5.4222395370542251E-05    1.3572623090204395E-04
          -1.3545521085983290E-05    2.9306779465298620E-04   -1.1045795169696878E-04
           3.4361721983009879E-04    1.2593016463786487E-04    1.2983789202306435E-04
           3.1082499004512561E-05   -2.1485637728377679E-04    1.3648810971780370E-04
          -1.1186997159034177E-04    8.8655851502170664E-05    8.1590272417541172E-05
           7.2533933878811323E-05   -7.4819315189058314E-05   -3.7629488888911533E-05
          -3.9322988575767546E-05    7.7713369531032543E-05   -4.9484602597817364E-05
           1.3057379766219127E-04    3.2998964297590811E-05    2.3389866014232689E-04
          -2.3509358637266231E-04   -1.3034774433791629E-04   -7.8879784829667538E-05
           2.2663974882093874E-04    3.8940882890787070E-06   -1.0672780451674045E-04
          -4.8905242918555799E-04   -8.8291554418823187E-05    4.1273297091390174E-05
          -2.3517177964261935E-04    3.0047635156283551E-05   -4.3285500883663101E-05
           2.3871849795385281E-04    1.6484647710468471E-04   -6.5701800577669191E-06
           2.1756702613251876E-06   -3.6685136594095908E-04    1.9083731501512334E-05
           1.5263277743781501E-04   -4.5406823835723299E-05   -4.7850620499916034E-05
          -2.4366711287534493E-04   -1.5793106100486310E-04    1.4697438563696482E-04
          -4.6380813505052824E-05    6.7005925797633312E-05   -1.4094312562543785E-04
           7.0386578673416598E-05    1.4790076784478162E-04    2.3286433602940431E-04
          -1.0544099119081815E-04    9.0971533133961762E-05    1.4244526951987018E-04
           3.9446322296805885E-04    6.7569172820137937E-05    1.1084316707426561E-04
          -7.7542156658514283E-05   -1.2551164720888558E-04   -1.9898819772681906E-04
           4.0834979217823362E-04    1.4764967627187189E-04    2.0705283490994557E-05
          -2.3057413576355428E-04   -1.2071393189589850E-04    1.1534324681642962E-04
          -2.2445140569554199E-04    3.2516286912463895E-04   -1.1004648482227076E-04
          -2.5249548995229433E-05    3.9104765548165523E-04    1.6361307451841242E-04
           2.2783467789480886E-05   -6.3114575279532469E-06    4.4689206318523090E-05
          -2.2749371826821010E-04   -7.0059699223107089E-06    6.3814403816893684E-05
          -7.5853164186719024E-05    8.7002441536843469E-05   -2.6945242200103518E-04
          -1.5174645296428080E-04   -1.6488710611762159E-04   -8.8599937395992680E-05
           8.3186202727755833E-06   -5.3104079059663003E-05   -7.5058533111122127E-05
           6.6500165507154562E-05    1.1873974519993072E-04   -1.6876577035681155E-04
          -3.6861210826475902E-04   -4.4905138593339679E-04   -7.2135058686091048E-05
          -1.2506938727182922E-04   -2.1650974605783694E-04    1.4245782354675598E-05
           1.5305853253051786E-04    7.8061367150240057E-05   -2.6041680607616450E-04
           1.1603170847574915E-04    1.3154101218124391E-04    1.9734889966527913E-05
          -2.7566410321391742E-05    4.9188391053226026E-05   -8.2861079404049177E-05
           1.7539773471506034E-04   -1.0194492078682312E-04   -1.5958541295068557E-05
           9.1160346890640268E-06   -1.7067102899870988E-04   -1.2704807040658306E-04
           2.0533708583835196E-04   -1.8520865666384997E-04    1.5572511017029566E-04
          -9.5059251454451512E-05    3.8900119903862985E-04    6.8133144196661914E-05
          -3.3406382324380581E-05    1.1411499707518991E-04    4.8377796709701522E-05
          -3.2166174218016883E-04   -6.7429210558819872E-05   -3.3439454031850544E-04
          -1.0567197804933308E-04   -1.8604152118341957E-04   -4.1177966912115230E-05
           3.0232555384652663E-04    4.4482756410141695E-08   -4.0954738013893244E-05
           3.4127138907830102E-04   -7.5686724692332612E-05    3.1369710523376256E-04
           4.8645208039900366E-06    9.5406277062310080E-05    4.0430203566393150E-05
          -7.3487234920258955E-05   -1.1019701265428825E-04   -1.6988167751695021E-04
          -9.5116294348976984E-05    1.5929238980026404E-04    1.0050636564752645E-04
           2.9577452115297608E-04   -2.0295534619238853E-04   -3.8717435443162924E-06
           3.3427097552778291E-05    2.9886113904014691E-05    2.3028601057008978E-05
           2.1249634917576830E-04   -1.8765388695139864E-04   -7.1382764687322702E-05
          -4.5134200613897391E-04   -3.6461998036508582E-05   -6.2014780459278523E-04
           9.6717121607570763E-04   -4.1496771604940448E-04   -1.4275705698017177E-03
           7.4612048410855844E-04    7.4926340799350759E-04   -2.8983563266371361E-05
           1.1950822730799073E-03   -2.4938163772237969E-04   -4.6955699926742173E-04
           3.3437263773385909E-04   -4.4066319731196651E-04   -4.5337897815549675E-04
           1.1011431662376839E-03    2.9139917327067338E-04   -1.2198962736654931E-03
           2.2385249970948006E-04    1.5948609342848713E-03   -3.7881054219301107E-04
           1.0079326383134934E-03   -6.8228660473714181E-04    2.6177285017211247E-04
          -7.1676772163915310E-05    2.5746464896954182E-05   -1.3520750351024658E-04
          -6.5359743159784504E-04   -1.1729133117710820E-04    1.7260386305597970E-04
          -6.3946645532221113E-04   -9.4886603544688710E-04   -2.5714998909112614E-04
          -3.9131100882723363E-04   -2.4416892645015716E-04   -5.0810873229493667E-04
           2.8831271512096628E-04   -2.0448067102032366E-03   -7.4372526402147763E-04
           3.8720872053657474E-04   -1.5659038684755263E-03   -8.1922109566903679E-04
           6.6131192185046167E-04   -2.0572267226670382E-04   -4.7008211594493939E-04
          -4.8840437586065148E-05   -1.4279618006711964E-03    8.4954144524146174E-04
          -5.1075273925416424E-04    9.0001937672754928E-04   -4.3720385364947440E-04
           2.7825781516916786E-04    1.1169167718963510E-04   -5.6938528402149767E-04
          -1.5084824930708760E-03    7.3769946902129953E-04   -6.1844046618093505E-06
           2.4538874923284729E-04    9.7494646952581631E-04   -4.8314180616132777E-04
          -8.5480359467440800E-05    5.9478416171931633E-04   -4.9304901637010165E-05
          -6.8266994504840607E-04   -5.5575566575134750E-04    7.1333097089252228E-04
           4.9456847773536413E-05    6.5025459335079781E-04   -7.7972174813314954E-04
           7.9382955318113969E-05   -7.8198264146179554E-04    7.2595378947975652E-04
           2.5852131569765248E-04    7.5469391167924758E-05   -5.8533339039037330E-04
           3.2409077359240793E-04   -2.7317136237410772E-04    2.5330976797389803E-04
          -1.0540506164906172E-03    5.0562455740585583E-04    7.1097587663539934E-04
           8.0546734662850750E-04   -1.4475933298990263E-04   -9.1148946840100855E-04
          -9.4447429201300313E-05   -1.7442565229249264E-04   -6.6682127829174528E-04
          -5.9604062243180092E-04    2.1026825326360753E-03   -1.6362959701445766E-04
          -5.9396099202930195E-04   -1.8326838202925745E-04   -3.0896384759847333E-04
          -1.1277145425927708E-04   -1.9670835968897986E-04    5.4210691563438829E-04
           3.7332633878935610E-04   -2.2247370329777074E-04   -3.6283756805751072E-04
          -5.2077706489133009E-04    8.9077612568327349E-04   -5.6184164068626900E-04
           6.7815751256199315E-04    1.3444514439396534E-04   -5.4935154403463733E-04
          -5.1310271397257574E-05   -7.8829554703839901E-04    5.3276039723759217E-04
          -8.5130409007101889E-05   -4.3984632745335358E-04   -1.5059866460115886E-03
           1.9680255627633813E-04    7.0602917217893848E-04    7.9813152563964866E-04
          -3.1120886791870077E-04    7.4703220924870637E-04    4.9930464952426218E-04
          -7.7046114692304790E-04    8.8060124139149984E-04    4.4946245364774548E-04
           4.7827412322376756E-04    2.0967831427746943E-04    9.9045583191652146E-04
           2.7338768314383159E-04   -1.2911505092647742E-05    2.0308294566656390E-03
           2.2268144216431337E-04    4.5671096290411900E-04    2.0294438627017422E-03
          -1.3963762680723810E-04    6.4107067981870327E-04    2.3590679284502089E-04
           1.0627265607007223E-03   -8.1441755638502194E-04    2.5570925291661025E-04
           5.5752905183952645E-04   -2.4904265434135144E-04    1.0092943120094762E-03
           8.2308722580082434E-04    4.6317561234580267E-04    1.0881531478796733E-03
           1.0550329244360000E-03    1.4718671462257452E-03   -1.9479088051303759E-04
          -5.9234975152525852E-04    1.4349114685494721E-03   -1.0527038082670818E-03
           1.6932613075267886E-04   -2.7170861877325243E-04   -1.8216829138228356E-04
          -3.9770868216176158E-04    1.1372230153313318E-03    1.5121550510570299E-04
          -2.1017769408948123E-04    2.5917097130723552E-04    1.2964206860153562E-03
           5.7060427920470097E-04    4.3671541264711489E-04   -1.4660693893578302E-04
           2.7365554736106460E-04   -1.1051173481899657E-04   -2.7041350586705013E-04
          -1.5490310923877491E-03   -4.8289839360022267E-04    1.0665735172169142E-03
           1.1224150504394445E-04    6.1359106772179370E-04   -2.4338314528363065E-04
          -8.4574512528216676E-04    2.7257287515663814E-04    4.4909119714627694E-04
          -9.0308194375820030E-04    4.6440059128350291E-04   -2.6541928312082624E-04
          -1.1903653561483665E-03    3.2337940593388698E-05   -5.5038916003952381E-05
           2.6854808173427448E-04   -1.1020380157773788E-03    6.7777744831064323E-04
           3.1913849412944987E-04    1.0174460215335004E-03   -3.0838829166124522E-04
          -4.2287091606422534E-04    4.3945863776684578E-04   -8.2903290422733336E-04
           4.5796851366947718E-04   -7.2851844241796830E-04   -1.9906514358217505E-04
          -2.5421516948667807E-04   -2.9861670766485220E-04    4.0880986581181595E-04
          -1.7312719899531995E-04    6.5870510361411587E-04    1.2668576802609679E-03
           2.5583564444062374E-04   -7.9678978705729082E-07    1.1677936184228356E-03
          -1.5491526831910634E-05    1.3159291771839697E-03    1.0400222974358533E-03
           8.9575808405062581E-04   -3.3563207831792716E-04    5.8434047540889490E-04
           1.0485189083690356E-03    1.4354236887845635E-04   -1.3233266899024751E-03
          -7.1283458299813444E-04    3.7647186490240726E-04   -7.8163815422607004E-04
          -5.0191624993945026E-05    2.0915573574576566E-05   -3.3662881984167377E-04