 # Version information for this restart file 
 # current date 2023-07-28 10:40:57.122
 # current working dir /mnt/lustre/indy2lfs/work/tc047/tc047/mrnuff-cirrus/cp2k/nuff-benchmarks/H2O-64-4node
 # Program compiled at                              Thu Jun 30 12:29:55 BST 2022
 # Program compiled on                                             cirrus-login3
 # Program compiled for                                             Cirrus-intel
 # Source code revision number                                       git:e635599
 &GLOBAL
   PRINT_LEVEL  LOW
   PROJECT_NAME H2O-64
   RUN_TYPE  MD
 &END GLOBAL
 &MOTION
   &MD
     ENSEMBLE  NVE
     STEPS  10
     TIMESTEP     4.9999999999999994E-01
     STEP_START_VAL  10
     TIME_START_VAL     4.9999999999999982E+00
     ECONS_START_VAL    -1.1007588181102485E+03
     TEMPERATURE     3.0000000000000000E+02
     &AVERAGES  T
       &RESTART_AVERAGES
         ITIMES_START  1
         AVECPU     3.1938567447941750E+00
         AVEHUGONIOT     0.0000000000000000E+00
         AVETEMP_BARO     0.0000000000000000E+00
         AVEPOT    -1.1010668160173032E+03
         AVEKIN     3.0070034549342950E-01
         AVETEMP     3.3142598856014422E+02
         AVEKIN_QM     0.0000000000000000E+00
         AVETEMP_QM     0.0000000000000000E+00
         AVEVOL     1.2909542132085598E+04
         AVECELL_A     2.3458682268415796E+01
         AVECELL_B     2.3458682268415796E+01
         AVECELL_C     2.3458682268415796E+01
         AVEALPHA     9.0000000000000000E+01
         AVEBETA     9.0000000000000000E+01
         AVEGAMMA     9.0000000000000000E+01
         AVE_ECONS    -1.0896372494094102E+01
         AVE_PRESS     0.0000000000000000E+00
         AVE_PXX     0.0000000000000000E+00
       &END RESTART_AVERAGES
     &END AVERAGES
   &END MD
 &END MOTION
 &FORCE_EVAL
   METHOD  QS
   &DFT
     BASIS_SET_FILE_NAME GTH_BASIS_SETS
     POTENTIAL_FILE_NAME POTENTIAL
     &SCF
       SCF_GUESS  ATOMIC
       &OT  T
         MINIMIZER  DIIS
       &END OT
       &PRINT
         &RESTART  OFF
         &END RESTART
       &END PRINT
     &END SCF
     &QS
       EPS_DEFAULT     9.9999999999999998E-13
       EXTRAPOLATION  PS
       EXTRAPOLATION_ORDER  3
     &END QS
     &MGRID
       CUTOFF     2.8000000000000000E+02
       REL_CUTOFF     3.0000000000000000E+01
     &END MGRID
     &XC
       DENSITY_CUTOFF     1.0000000000000000E-10
       GRADIENT_CUTOFF     1.0000000000000000E-10
       TAU_CUTOFF     1.0000000000000000E-10
       &XC_FUNCTIONAL  NO_SHORTCUT
         &PADE  T
         &END PADE
       &END XC_FUNCTIONAL
     &END XC
   &END DFT
   &SUBSYS
     &CELL
       A     1.2413800000000002E+01    0.0000000000000000E+00    0.0000000000000000E+00
       B     0.0000000000000000E+00    1.2413800000000002E+01    0.0000000000000000E+00
       C     0.0000000000000000E+00    0.0000000000000000E+00    1.2413800000000002E+01
       MULTIPLE_UNIT_CELL  1 1 1
     &END CELL
     &COORD
O    1.2265692089483842E+01    1.3554390129941689E+00    1.0875425741210453E+01
O    6.4523125712781528E+00    3.7059030017230095E+00    8.6472703373291626E+00
O    7.7679434805496522E-02    2.1684363409617555E+00    8.2608499727947944E+00
O    1.2086328917682270E+01    2.6383236471456688E+00    2.1708319631148050E+00
O    1.2290563434792473E+01    4.1705987030844458E+00    1.2102197401501094E+01
O    7.2035546534507793E+00    9.4146440982930835E-01    4.7596753308529367E+00
O    8.3332259924712009E+00    7.2077559238209119E+00    4.6827252174469010E+00
O    1.2331820354972782E+01    1.1521085584601186E+01    8.0815267568454328E+00
O    3.2742305248728476E+00    4.4591006237001993E+00    9.1745323461746242E+00
O    2.8601657947011820E+00    3.7871321994318530E+00    6.5410904120533662E+00
O    1.3797135980521971E+00    6.3917883108529834E+00    5.6509499049334733E-01
O    1.8717778176467359E+00    8.6859327223320975E+00    2.0908475002934779E+00
O    3.7724126920716388E+00    1.2107291686118607E+01    8.6205990988999712E+00
O    6.4253612010426080E+00    3.6667844669335712E+00    2.7875787966086127E+00
O    1.9996801569167646E+00    1.8525818618606207E+00    4.8671305057775935E+00
O    8.2870264289442623E+00    2.4221945186201346E+00    6.9417301194041139E+00
O    5.7524965525743132E+00    3.3354063225406563E+00    1.2486444073906741E+01
O    1.1313041873264217E+01    5.6568394091370209E+00    2.2481538681310251E+00
O    4.2889086332745618E+00    2.1146774663677124E+00    1.0586400462686871E+01
O    5.3988008779579344E+00    3.3584215761666560E+00    5.4859980676065856E+00
O    6.5093803283315337E+00    1.1870555907452619E+01    7.1448610258287804E-01
O    3.2525927590517369E+00    2.3434818290720836E+00    2.4132514479859917E+00
O    8.0086796499285402E+00    6.3565335203087390E+00    7.4977752039611181E+00
O    5.9288585788257055E+00    6.5082801666042851E+00    1.2195796701642529E+01
O    1.0610385294795654E+01    1.1861264429738572E+01    1.2200574174939971E+01
O    9.3403690756569144E+00    3.6890996107165139E+00    3.5273423653474953E+00
O    1.1111278086578329E+00    5.7890355206451822E+00    6.6473009501981606E+00
O    8.0194995343334643E+00    3.3269739508473100E+00    1.0869758841489837E+01
O    1.2376084676796186E+01    9.6748049821030371E+00    1.1772442429127571E+01
O    4.2098962719503277E+00    7.0914037241391457E+00    8.1403049780540577E+00
O    3.7839656891275024E+00    8.2290488153630754E+00    1.1585038748792680E+01
O    1.1076296436002767E+01    4.5429033328726085E+00    7.8327522122957829E+00
O    1.0435269965490455E+01    8.4217711221835305E+00    1.0328413587523002E+00
O    1.9828015281273084E+00    6.4005825276165531E+00    1.0353823655978420E+01
O    4.7041682767468647E+00    5.6227133611207791E-01    5.6097237226911183E+00
O    8.7178718108892923E+00    1.2242115811187322E+01    8.0976567639231369E+00
O    2.6327341025094748E+00    1.0520521873272740E+01    8.2905623926725097E-02
O    7.2399931187466278E+00    1.0511642196931630E+01    4.2432664330030274E+00
O    2.2807064781618664E+00    2.7612056427328607E-01    1.0807250569989241E+01
O    8.8632061138829137E+00    9.4642072500211727E-01    1.3400856795972054E+00
O    1.9443088048743788E+00    8.0893935868695266E+00    7.5355059867710725E+00
O    9.6598248299587723E+00    8.0355046451627103E+00    9.8565400345211334E+00
O    1.0903669851584423E+01    8.3307153998976489E+00    6.4773146916028406E+00
O    3.5124567442237553E+00    4.8693650210821717E+00    1.5451764009707900E+00
O    7.9775830453592107E+00    8.6026723333304105E+00    1.2050849513770654E+01
O    8.3694035479504549E+00    1.0019371052443086E+01    6.6836141760226528E+00
O    5.6546743218579065E+00    6.0810664230945273E+00    5.5283846573828663E+00
O    1.1742547847645383E+01    1.6241840639034109E+00    5.0859575162073920E+00
O    9.7585719615142281E+00    9.8110347715520572E+00    3.5364867774940998E+00
O    3.9627876574399674E+00    1.0548914651573943E+01    4.6848634346389630E+00
O    9.0110847254974136E-01    6.3699180308684893E+00    4.0614677068442369E+00
O    6.8825857356121798E+00    6.4084220847944700E+00    2.5046902581441510E+00
O    3.8180799995398385E+00    6.6391276583280634E+00    3.7786506828596873E+00
O    6.5639457974899909E+00    8.3081696931558930E+00    8.8142644496198130E+00
O    9.7792965800926499E+00    1.3440562766333691E-01    3.8518038249084694E+00
O    4.1040770115656739E+00    1.1645978558721415E+01    2.2167390496174217E+00
O    5.3225394392112424E+00    8.7370879819812561E+00    2.7520568939069041E+00
O    1.0008064086737164E+01    5.3735087324373447E+00    5.3757728940149718E+00
O    1.2260297782908767E+01    8.6464340629358407E+00    3.9709777917870728E+00
O    2.3431345497117051E+00    1.0747243885368517E+01    6.8128217267253879E+00
O    7.0016612916654131E+00    6.6240597665995471E-01    1.0534341561687871E+01
O    5.1725047982212189E+00    1.0218495319125282E+01    1.0357205957141197E+01
O    1.1186316801594364E+01    5.8851524495734635E+00    1.0299193203866016E+01
O    1.2277001782589702E+01    8.9569716794262764E+00    9.0707884188587027E+00
H    1.2357840653884024E+01    2.3335995753227605E+00    1.1187202568866102E+01
H    1.1946181003855399E+01    1.5338243304137191E+00    9.8820686313883481E+00
H    5.5871540557007409E+00    3.4492983737417040E+00    9.0442905792558257E+00
H    6.8930493554880430E+00    3.0239782285785428E+00    7.9852283560213282E+00
H   -1.4374297116943816E-01    1.5098214846057134E+00    7.5263531243334709E+00
H   -3.8865416711600481E-01    3.0530974755007954E+00    7.9298823362656563E+00
H    1.2176354233154489E+01    2.9746344065073576E+00    1.1924463434417045E+00
H    1.2991627169715171E+01    2.9143170210550577E+00    2.5155346727349821E+00
H    1.1517585159653629E+01    4.3255122446514509E+00    1.1434691026735406E+01
H    1.2784953658522552E+01    5.0635466714140493E+00    1.2040055000815460E+01
H    6.9671401310533998E+00    1.7387343976987559E+00    4.1849967664919649E+00
H    6.2296009063343227E+00    6.8946782722622901E-01    5.1579113656945212E+00
H    7.7273594948727453E+00    7.2216808380982513E+00    5.4888761780282049E+00
H    9.1691701765458955E+00    6.6296086344972061E+00    4.9460727574875030E+00
H    1.2846883768257369E+01    1.1781070688350553E+01    8.9005192602383225E+00
H    1.1983330930255338E+01    1.0563456761595843E+01    8.3168613221538532E+00
H    3.5249173108190268E+00    3.8402074967256672E+00    9.9510006399907009E+00
H    2.4297337650180202E+00    4.9330989925198949E+00    9.5245628999129455E+00
H    2.1731627523298318E+00    4.5583640086442729E+00    6.3013579985291281E+00
H    2.8563500932214732E+00    3.8576048156120666E+00    7.5841394106041493E+00
H    1.1402120515025258E+00    7.1967347480537098E+00    1.1594244541632566E+00
H    2.2451038169246913E+00    6.0044688738682526E+00    1.0028737587414678E+00
H    2.8159635337995668E+00    8.9701748198781459E+00    2.2995199891601024E+00
H    1.3289544665070037E+00    8.9939926467763467E+00    2.8983257079447506E+00
H    4.4550218369062744E+00    1.1540339425003765E+01    9.1644203320318027E+00
H    3.0505860859909455E+00    1.2474023132570405E+01    9.2862357274709399E+00
H    5.8591510063946890E+00    3.4580809397756633E+00    3.6616773633303721E+00
H    5.8328342793248016E+00    3.4003555439702802E+00    1.9823495664214454E+00
H    9.5573469725996796E-01    1.6451477306437690E+00    4.8407733836331133E+00
H    2.2282991647309012E+00    2.4813299829874329E+00    5.6872650230025750E+00
H    8.4431290012365814E+00    1.6050270153557356E+00    7.5442513472479735E+00
H    8.0660702671736324E+00    2.0137128293839073E+00    6.0338191030228989E+00
H    5.2179579256215760E+00    2.8944435585809050E+00    1.1676379626020227E+01
H    6.6808372388706587E+00    3.4137338960716890E+00    1.1974227321955006E+01
H    1.0787628803145385E+01    6.5181395670624793E+00    2.0987991922624540E+00
H    1.1679773573100601E+01    5.3602522151473364E+00    1.3423877172506751E+00
H    3.4353203684191391E+00    1.5422281194349670E+00    1.0899348788954713E+01
H    4.8360131199375500E+00    1.4266306188293691E+00    1.0089887937303534E+01
H    4.3860802582005238E+00    3.3639520802570000E+00    5.6883523933784694E+00
H    5.6851424648149198E+00    4.3694414775811721E+00    5.5473743673643652E+00
H    6.2905172776223726E+00    1.1824099733750254E+01    1.7188529435633582E+00
H    5.6254822935025501E+00    1.2118652077616026E+01    3.2827489265253440E-01
H    3.5448338646072854E+00    1.3905272139795630E+00    2.1815170599100289E+00
H    2.6082617908445664E+00    2.2011793682001208E+00    3.2448585926827707E+00
H    7.1214310944133015E+00    5.8746986475787848E+00    7.5240902705275472E+00
H    8.6555160452205158E+00    5.7349833608737733E+00    7.0296645633640793E+00
H    6.0004465275664476E+00    5.6511979030146051E+00    1.1673025686979576E+01
H    6.2576534574145342E+00    6.3249880564331313E+00    1.3168261180251832E+01
H    1.1110393485507931E+01    1.2636559250997649E+01    1.1695509562619240E+01
H    1.0264574453193420E+01    1.2297166054266901E+01    1.3044673119310014E+01
H    9.9063257583760738E+00    4.0523254539291207E+00    2.7328096710814354E+00
H    8.5320976562312101E+00    3.4662435851508939E+00    2.9418258347990909E+00
H    1.4549325922357257E+00    6.6684406032657053E+00    7.1063381287429177E+00
H    1.0013233336707614E+00    6.1758231958594001E+00    5.6553319488928810E+00
H    7.9834584102614103E+00    3.6965662970354649E+00    9.9295362401114211E+00
H    8.0702893407909944E+00    2.3148727995365412E+00    1.0750118168091184E+01
H    1.1741851247337621E+01    1.0457041172522521E+01    1.2099135806994244E+01
H    1.2145140467197910E+01    8.9346530857759223E+00    1.2412210742862278E+01
H    3.3373535314760621E+00    7.6121200308662429E+00    7.8531045761947196E+00
H    3.8438071109325840E+00    6.2417161568839870E+00    8.6114175129826762E+00
H    3.1132077807645189E+00    7.6196920981175333E+00    1.1070308623799887E+01
H    4.4752997918979709E+00    7.6309327249728653E+00    1.2076616644959042E+01
H    1.1595109347939610E+01    4.9846383472192128E+00    7.0588447442730233E+00
H    1.0300198428128789E+01    4.1359917521741423E+00    7.3179795841162649E+00
H    1.0066803629045065E+01    8.9449101926887469E+00    1.8648409458422535E+00
H    9.5721275817989699E+00    8.2654871620114037E+00    4.9820470823278884E-01
H    1.3188214514384358E+00    6.6901027276292542E+00    9.6503048603171386E+00
H    1.4021624816963225E+00    6.4512365186869420E+00    1.1227722789147460E+01
H    4.1225373888739121E+00    1.3301382656579035E+00    5.2661059713500551E+00
H    4.6863100279907535E+00    6.4323888153883102E-01    6.6181558656212198E+00
H    9.4703533710560066E+00    1.2334177792059776E+01    8.7409520154270481E+00
H    8.8486737260991699E+00    1.1353175343936339E+01    7.5414016813713358E+00
H    1.7346635260612246E+00    1.0023247752457342E+01    1.4531246290808111E-01
H    3.3374323737187810E+00    9.8445600332823471E+00   -2.3573946363422418E-01
H    7.0505799823405120E+00    1.1506005604268235E+01    4.1255571139607552E+00
H    6.4716019298295206E+00    9.9354966266940234E+00    3.7910911532787588E+00
H    1.3268589592366193E+00    5.8377393430187219E-01    1.1128929736799350E+01
H    2.5223619020800019E+00   -5.4513600115413385E-01    1.1460522258350927E+01
H    8.7695024945571873E+00    1.8730405160136714E+00    9.9029984538953986E-01
H    8.0908940305267265E+00    3.3984351975202848E-01    9.9164118000023815E-01
H    1.1203607709239507E+00    8.3716512006959967E+00    8.1792323344823856E+00
H    2.0883187077770597E+00    8.9941496096240261E+00    7.0138877035400773E+00
H    8.9092455661177326E+00    7.7938840102051286E+00    9.2222118549469663E+00
H    9.0650442925878689E+00    8.4492400512124171E+00    1.0614283870981881E+01
H    1.0125293357176556E+01    7.6972294325251998E+00    6.4507709233867789E+00
H    1.0499855152536359E+01    9.1992705817143481E+00    6.1555311709838740E+00
H    3.4971231604230644E+00    3.9586904012080693E+00    2.1122844778208800E+00
H    4.0584146620663395E+00    4.5845739999393071E+00    7.4299547661131882E-01
H    7.3547300979714834E+00    9.3907717765821683E+00    1.2034662471094222E+01
H    7.3341917810682169E+00    7.7711469163733904E+00    1.2054219542749900E+01
H    7.8271815569079903E+00    1.0161811172290330E+01    5.7814619639483977E+00
H    7.7120113817882006E+00    9.5092512996367198E+00    7.2843726304680505E+00
H    5.2899463871868697E+00    6.4889429596074599E+00    6.3929757321024292E+00
H    4.8678252868834431E+00    6.3175211180852600E+00    4.8313586361443761E+00
H    1.1521862541305769E+01    2.1923283626799352E+00    4.2496614328175140E+00
H    1.1222791846958252E+01    7.8414795598382048E-01    4.7829538343866620E+00
H    8.8119942350204390E+00    9.6778779613704042E+00    3.9666686831528311E+00
H    9.9342844970883775E+00    1.0814156988790073E+01    3.7816372858608838E+00
H    3.1082289528955598E+00    1.0546326407174355E+01    5.2868803913855400E+00
H    4.3132584907107434E+00    1.1455620653057750E+01    5.0610780320736692E+00
H    4.2220406784303577E-01    7.3045102192444222E+00    3.8013135649933876E+00
H    2.9772343931254652E-01    5.7724401932038640E+00    3.4526995513598751E+00
H    7.5860591209731751E+00    6.5678847601543495E+00    3.2915836809341825E+00
H    6.6758385347278759E+00    5.3831754309179534E+00    2.5200133494029058E+00
H    3.8532534172197637E+00    6.3060046348700496E+00    2.8123783749705304E+00
H    2.7953246440735589E+00    6.5485847389777891E+00    3.9537741358608387E+00
H    5.5553176437609997E+00    8.0120599991630232E+00    8.6583941104708391E+00
H    6.9993930795496544E+00    7.4780238970675965E+00    8.4104344163931142E+00
H    9.5571588990614593E+00    7.3280446145746880E-01    3.0174818797267706E+00
H    8.9237164310790131E+00    1.3437510586244011E-01    4.4076447871973325E+00
H    3.8482457315691314E+00    1.1174438455170611E+01    1.3441470566655014E+00
H    3.9626056228590731E+00    1.0964278466897049E+01    3.0102551897943184E+00
H    5.9449661422365585E+00    7.8891857853084337E+00    2.7995741535960095E+00
H    4.7652120121290062E+00    8.7229381074886234E+00    3.5906717261649082E+00
H    1.0905815782848785E+01    5.5302201800699606E+00    4.9342869455825280E+00
H    9.5033245323303941E+00    4.6732708376733969E+00    4.7171193166483043E+00
H    1.1491942104116559E+01    9.0018887406797337E+00    3.3983649908376252E+00
H    1.1959903629041408E+01    8.7851547644287020E+00    4.9401026898666087E+00
H    2.9404439844274974E+00    1.1333326721638876E+01    7.4881123877730928E+00
H    1.3993518978820967E+00    1.1120275827043141E+01    6.8063456551220867E+00
H    7.2181951384370713E+00    1.2809608485352503E-01    9.7032371258680072E+00
H    7.1648660378583395E+00    1.0772078745152394E-01    1.1367500988399931E+01
H    4.8113412051059923E+00    9.3237474535604665E+00    1.0837702423611914E+01
H    6.0816481698035734E+00    9.8060697913093851E+00    1.0186927365163747E+01
H    1.0565212262639406E+01    6.7306908548566220E+00    1.0314443980527816E+01
H    1.1239043366236830E+01    5.5938377372090775E+00    9.3143651163974130E+00
H    1.2188456954751118E+01    8.9927460848965026E+00    1.0127821223536277E+01
H    1.1415764242459423E+01    8.6329965781004852E+00    8.6365688433564927E+00
     &END COORD
     &VELOCITY
           2.4353373553036420E-04   -1.2006097602628757E-04    8.6380096427247151E-05
           5.1311970178480891E-05   -1.2708266187317767E-06   -1.4048482608971829E-05
          -1.3298767757341956E-04   -8.3910828184278428E-05   -1.7227772179792479E-04
           3.2311111387297935E-04   -2.8974228281192753E-04    2.2815855771124912E-04
           3.6807112799725199E-04   -1.6540691871845406E-04    8.2168021723956161E-05
           8.6843810079091624E-05   -1.6733145785114751E-04    2.3233906169626154E-04
          -1.9144732815366044E-04    3.6490306372541070E-05    1.7692428816774638E-04
          -2.7339212137202307E-04   -2.0181330318259616E-06   -2.5185283188708260E-04
          -2.9114797156616455E-04    1.4202524657042323E-04   -9.4207613535910080E-05
           4.9604684382549040E-05    1.9764986075547828E-04   -3.9675655900736775E-05
          -1.0338266296100625E-04    2.5533554886952061E-04   -1.7753567723212478E-04
           1.2393271803108556E-04   -5.1522817962526283E-05    2.4869105054775743E-04
           3.7171385612462921E-05    1.3912087635304052E-04   -2.6001104941672629E-04
          -9.0584380440101512E-05   -5.4256969623801481E-05    1.3571849163672168E-04
          -1.3532069032796845E-05    2.9312535024543734E-04   -1.1035216194604357E-04
           3.4365663856461933E-04    1.2592891247426846E-04    1.2984947778366433E-04
           3.1061310688187023E-05   -2.1491061234649010E-04    1.3642911352182877E-04
          -1.1197980598511656E-04    8.8708519143659666E-05    8.1551359031564670E-05
           7.2553977151287600E-05   -7.4882564047821043E-05   -3.7593240427964949E-05
          -3.9311008768921465E-05    7.7794970775745442E-05   -4.9503853884369181E-05
           1.3050850736174042E-04    3.2997372841469398E-05    2.3384938882131334E-04
          -2.3506710107578917E-04   -1.3038351983288006E-04   -7.8872779760189713E-05
           2.2656471395874115E-04    3.8984618355812981E-06   -1.0674489559784548E-04
          -4.8910812396691034E-04   -8.8250996373538543E-05    4.1168871693819614E-05
          -2.3516505104484542E-04    3.0141522875667780E-05   -4.3307021530687461E-05
           2.3874077440307049E-04    1.6479626533159620E-04   -6.5961174435172552E-06
           2.1570400441894430E-06   -3.6687604474035571E-04    1.9056449024397229E-05
           1.5263290745847055E-04   -4.5423683352746685E-05   -4.7828240981131280E-05
          -2.4361660474374791E-04   -1.5799538490266095E-04    1.4701044899623528E-04
          -4.6332302280239261E-05    6.6958418739622287E-05   -1.4093723621035861E-04
           7.0402526347737986E-05    1.4787938508716123E-04    2.3294646136697537E-04
          -1.0541845847212901E-04    9.0959878373751536E-05    1.4239486316688739E-04
           3.9447066267597324E-04    6.7697585284208278E-05    1.1078543439971740E-04
          -7.7642050404528072E-05   -1.2536442817994082E-04   -1.9896428320019015E-04
           4.0834731830687010E-04    1.4767279245017734E-04    2.0697580190655307E-05
          -2.3059415805106766E-04   -1.2069261926322345E-04    1.1528847271811857E-04
          -2.2453224222984249E-04    3.2508315209876727E-04   -1.1011175869247377E-04
          -2.5223464560438426E-05    3.9102949516720378E-04    1.6353834116257729E-04
           2.2717843313856721E-05   -6.2765751652450024E-06    4.4671040028035980E-05
          -2.2749659830938692E-04   -6.9576305498335955E-06    6.3788388337546913E-05
          -7.5841302719456660E-05    8.7087799013961902E-05   -2.6939094015531140E-04
          -1.5166914071673433E-04   -1.6482446184547822E-04   -8.8619423401372393E-05
           8.3255811680908712E-06   -5.3065384630265498E-05   -7.5044278374504812E-05
           6.6403553282737179E-05    1.1865592146432185E-04   -1.6876922794157529E-04
          -3.6854176965761087E-04   -4.4916679521545547E-04   -7.2212204721097028E-05
          -1.2514834926102345E-04   -2.1658705550442814E-04    1.4279407552958751E-05
           1.5301292386906077E-04    7.8212466735464394E-05   -2.6042789655517161E-04
           1.1597437780982266E-04    1.3153166326534618E-04    1.9714489347139681E-05
          -2.7586288469436824E-05    4.9135802992819823E-05   -8.2847135186334703E-05
           1.7533037836795610E-04   -1.0200057778765234E-04   -1.5955910870137358E-05
           9.1305293487035907E-06   -1.7063363096586601E-04   -1.2704533408614338E-04
           2.0532414019965329E-04   -1.8523108331182107E-04    1.5576953260145821E-04
          -9.5082342048881103E-05    3.8898283928629889E-04    6.8143354601367192E-05
          -3.3468517685924780E-05    1.1413973594224353E-04    4.8372670608706116E-05
          -3.2167308794088815E-04   -6.7373694362832823E-05   -3.3440505798341041E-04
          -1.0565699375575853E-04   -1.8612919959434753E-04   -4.1185047195647597E-05
           3.0227443463824266E-04   -1.9476823060133280E-08   -4.0898192669126232E-05
           3.4132859750858423E-04   -7.5666618758461139E-05    3.1369871723583502E-04
           4.8774504477266025E-06    9.5432986766114393E-05    4.0463993791765862E-05
          -7.3525642131358663E-05   -1.1023344657561861E-04   -1.6990266178304155E-04
          -9.5305467321747065E-05    1.5924492797685672E-04    1.0050784054763126E-04
           2.9577992716486293E-04   -2.0302338272293793E-04   -3.8000268558337681E-06
           3.3426751498933410E-05    2.9960856877163433E-05    2.2957098674646166E-05
           2.1247046209618779E-04   -1.8773508816208209E-04   -7.1323934921966066E-05
          -4.5158839414071778E-04   -3.6143060083780978E-05   -6.1976176341833021E-04
           9.6706711087739109E-04   -4.1494673938597245E-04   -1.4270244721851825E-03
           7.4657709737108191E-04    7.4979183340260504E-04   -2.9716006616931542E-05
           1.1944835029905211E-03   -2.4887952171039925E-04   -4.6965328169875465E-04
           3.3415678177582165E-04   -4.4057529884418515E-04   -4.5347033642241416E-04
           1.1012796130074195E-03    2.9083917952935735E-04   -1.2194190254880633E-03
           2.2415342342829814E-04    1.5937251548221538E-03   -3.7781211910871843E-04
           1.0073465758404670E-03   -6.8157982680626644E-04    2.6183752026147909E-04
          -6.9769183568241407E-05    2.4841597099234932E-05   -1.3349984293954957E-04
          -6.5395783738278783E-04   -1.1729839037173423E-04    1.7209949835462996E-04
          -6.3912725034087896E-04   -9.4833908162123947E-04   -2.5753189731926314E-04
          -3.9187509730068029E-04   -2.4417797176911813E-04   -5.0822500047647786E-04
           2.8904185309684379E-04   -2.0455475311566551E-03   -7.4488003307022392E-04
           3.8533435936874937E-04   -1.5649598638758807E-03   -8.1999331591042660E-04
           6.6163782210091346E-04   -2.0530137992230883E-04   -4.7022778537580100E-04
          -4.8571775201968921E-05   -1.4283455067300903E-03    8.4970777264914215E-04
          -5.1040502071006205E-04    9.0124041076073726E-04   -4.3717828654997069E-04
           2.7962496773887890E-04    1.1112791910517972E-04   -5.6980553870300858E-04
          -1.5080494509697498E-03    7.3672779723076400E-04   -5.7541529138037704E-06
           2.4475429621226708E-04    9.7437756642955117E-04   -4.8339679943522703E-04
          -8.5981680087686120E-05    5.9512037269329396E-04   -4.8949501756348623E-05
          -6.8266467563773373E-04   -5.5567223334341501E-04    7.1350489602853534E-04
           4.8033714483664214E-05    6.5011279411445703E-04   -7.7943973950176867E-04
           8.0491911116284767E-05   -7.8343749754900167E-04    7.2435736497695005E-04
           2.5839724569776395E-04    7.5578985200891287E-05   -5.8507007759381617E-04
           3.2468632066381487E-04   -2.7324024725489099E-04    2.5249479693900245E-04
          -1.0539062839354800E-03    5.0616494373536918E-04    7.1049452486520999E-04
           8.0541579377145988E-04   -1.4428395473735405E-04   -9.1111624630693775E-04
          -9.3901405528683192E-05   -1.7440336409929531E-04   -6.6695306718758836E-04
          -5.9667439631298574E-04    2.1020879938551088E-03   -1.6524975841445021E-04
          -5.9413689338781868E-04   -1.8314218672591681E-04   -3.0878549942571346E-04
          -1.1299139622110564E-04   -1.9706794254654932E-04    5.4164798336999603E-04
           3.7379192865341968E-04   -2.2187500988990228E-04   -3.6215118742593004E-04
          -5.2111287106805537E-04    8.9091209793134868E-04   -5.6207250900261029E-04
           6.7919292602926055E-04    1.3343181456922158E-04   -5.4958333089437112E-04
          -5.0955912342322793E-05   -7.8811310901445481E-04    5.3306738435436477E-04
          -8.4615276359644413E-05   -4.3969810880430506E-04   -1.5061331385169661E-03
           1.9621493945499229E-04    7.0658921103663780E-04    7.9834173947690521E-04
          -3.1086266729572504E-04    7.4710976670930729E-04    4.9983161017129333E-04
          -7.7088036735501559E-04    8.7923123996871868E-04    4.4906439901529205E-04
           4.7843808738046184E-04    2.0885304147913518E-04    9.9081078440296897E-04
           2.7383478091708732E-04   -1.2076470156497133E-05    2.0312636572830385E-03
           2.2238602224771786E-04    4.5732113704037201E-04    2.0297495633779367E-03
          -1.3983314820495380E-04    6.4110517559080968E-04    2.3541721874835637E-04
           1.0634351964376267E-03   -8.1406755448555678E-04    2.5592615930877647E-04
           5.5764666823711622E-04   -2.4944020396960414E-04    1.0095491375807363E-03
           8.2355304835972994E-04    4.6265598282766189E-04    1.0873683440546726E-03
           1.0554542732495631E-03    1.4711843503835511E-03   -1.9257994643581030E-04
          -5.9301436637068292E-04    1.4338243179472419E-03   -1.0518598720296933E-03
           1.7009542630565881E-04   -2.7229621441196127E-04   -1.8275874432731277E-04
          -3.9794180046133802E-04    1.1377334676035758E-03    1.5111872075196207E-04
          -2.1010779018573592E-04    2.5908254733802408E-04    1.2965840741192122E-03
           5.7014687398195929E-04    4.3663748723340382E-04   -1.4622705924523488E-04
           2.7451658005888215E-04   -1.1055104188401404E-04   -2.7011911347148067E-04
          -1.5488517943882253E-03   -4.8268639176645919E-04    1.0661735519831353E-03
           1.1223093818092306E-04    6.1336181166385850E-04   -2.4337739021138428E-04
          -8.4642821009819468E-04    2.7314900748201651E-04    4.4966165017757309E-04
          -9.0281864258760097E-04    4.6471968390974442E-04   -2.6632644266965944E-04
          -1.1909602595197547E-03    3.2546725727178937E-05   -5.5177771587142490E-05
           2.6878284877871410E-04   -1.1019214430994142E-03    6.7804196597738911E-04
           3.1926309390700481E-04    1.0177813137745939E-03   -3.0847823992857673E-04
          -4.2284471692124776E-04    4.3959034012242112E-04   -8.2960000477272009E-04
           4.5763012014335050E-04   -7.2873611065605638E-04   -1.9810871955827660E-04
          -2.5435809608475825E-04   -2.9857092395484147E-04    4.0812967128509773E-04
          -1.7369381695219518E-04    6.5701533357747028E-04    1.2674523034563732E-03
           2.5615963330717656E-04   -1.0911306625241763E-06    1.1679000472517387E-03
          -1.6308109796022772E-05    1.3149337651015543E-03    1.0407917756997053E-03
           8.9763869715009273E-04   -3.3652501426688878E-04    5.8254652395510877E-04
           1.0486726919010951E-03    1.4387708622470480E-04   -1.3227328924913780E-03
          -7.1280006662408849E-04    3.7576614693065035E-04   -7.8229807968039126E-04
          -4.9597517520018701E-05    2.0943390439968435E-05   -3.3577883353993446E-04