 # Version information for this restart file 
 # current date 2023-07-28 10:40:18.050
 # current working dir /mnt/lustre/indy2lfs/work/tc047/tc047/mrnuff-cirrus/cp2k/nuff-benchmarks/H2O-64-4node
 # Program compiled at                              Thu Jun 30 12:29:55 BST 2022
 # Program compiled on                                             cirrus-login3
 # Program compiled for                                             Cirrus-intel
 # Source code revision number                                       git:e635599
 &GLOBAL
   PRINT_LEVEL  LOW
   PROJECT_NAME H2O-64
   RUN_TYPE  MD
 &END GLOBAL
 &MOTION
   &MD
     ENSEMBLE  NVE
     STEPS  10
     TIMESTEP     4.9999999999999994E-01
     STEP_START_VAL  10
     TIME_START_VAL     4.9999999999999982E+00
     ECONS_START_VAL    -1.1007588181101751E+03
     TEMPERATURE     3.0000000000000000E+02
     &AVERAGES  T
       &RESTART_AVERAGES
         ITIMES_START  1
         AVECPU     3.1509315773611890E+00
         AVEHUGONIOT     0.0000000000000000E+00
         AVETEMP_BARO     0.0000000000000000E+00
         AVEPOT    -1.1010668160173020E+03
         AVEKIN     3.0070034549346997E-01
         AVETEMP     3.3142598856018878E+02
         AVEKIN_QM     0.0000000000000000E+00
         AVETEMP_QM     0.0000000000000000E+00
         AVEVOL     1.2909542132085598E+04
         AVECELL_A     2.3458682268415796E+01
         AVECELL_B     2.3458682268415796E+01
         AVECELL_C     2.3458682268415796E+01
         AVEALPHA     9.0000000000000000E+01
         AVEBETA     9.0000000000000000E+01
         AVEGAMMA     9.0000000000000000E+01
         AVE_ECONS    -1.0896372601941948E+01
         AVE_PRESS     0.0000000000000000E+00
         AVE_PXX     0.0000000000000000E+00
       &END RESTART_AVERAGES
     &END AVERAGES
   &END MD
 &END MOTION
 &FORCE_EVAL
   METHOD  QS
   &DFT
     BASIS_SET_FILE_NAME GTH_BASIS_SETS
     POTENTIAL_FILE_NAME POTENTIAL
     &SCF
       SCF_GUESS  ATOMIC
       &OT  T
         MINIMIZER  DIIS
       &END OT
       &PRINT
         &RESTART  OFF
         &END RESTART
       &END PRINT
     &END SCF
     &QS
       EPS_DEFAULT     9.9999999999999998E-13
       EXTRAPOLATION  PS
       EXTRAPOLATION_ORDER  3
     &END QS
     &MGRID
       CUTOFF     2.8000000000000000E+02
       REL_CUTOFF     3.0000000000000000E+01
     &END MGRID
     &XC
       DENSITY_CUTOFF     1.0000000000000000E-10
       GRADIENT_CUTOFF     1.0000000000000000E-10
       TAU_CUTOFF     1.0000000000000000E-10
       &XC_FUNCTIONAL  NO_SHORTCUT
         &PADE  T
         &END PADE
       &END XC_FUNCTIONAL
     &END XC
   &END DFT
   &SUBSYS
     &CELL
       A     1.2413800000000002E+01    0.0000000000000000E+00    0.0000000000000000E+00
       B     0.0000000000000000E+00    1.2413800000000002E+01    0.0000000000000000E+00
       C     0.0000000000000000E+00    0.0000000000000000E+00    1.2413800000000002E+01
       MULTIPLE_UNIT_CELL  1 1 1
     &END CELL
     &COORD
O    1.2265692089484162E+01    1.3554390129941589E+00    1.0875425741210451E+01
O    6.4523125712782630E+00    3.7059030017229904E+00    8.6472703373291928E+00
O    7.7679434805462036E-02    2.1684363409617440E+00    8.2608499727948335E+00
O    1.2086328917682296E+01    2.6383236471456879E+00    2.1708319631148054E+00
O    1.2290563434792501E+01    4.1705987030844573E+00    1.2102197401501108E+01
O    7.2035546534508166E+00    9.4146440982931401E-01    4.7596753308529918E+00
O    8.3332259924711298E+00    7.2077559238209608E+00    4.6827252174469098E+00
O    1.2331820354972782E+01    1.1521085584601192E+01    8.0815267568455695E+00
O    3.2742305248728827E+00    4.4591006237002278E+00    9.1745323461747681E+00
O    2.8601657947011812E+00    3.7871321994318343E+00    6.5410904120530891E+00
O    1.3797135980522082E+00    6.3917883108529860E+00    5.6509499049340650E-01
O    1.8717778176467683E+00    8.6859327223320992E+00    2.0908475002934477E+00
O    3.7724126920715881E+00    1.2107291686118609E+01    8.6205990988999694E+00
O    6.4253612010426124E+00    3.6667844669336027E+00    2.7875787966085848E+00
O    1.9996801569167499E+00    1.8525818618606307E+00    4.8671305057775829E+00
O    8.2870264289442677E+00    2.4221945186201395E+00    6.9417301194041912E+00
O    5.7524965525743132E+00    3.3354063225406847E+00    1.2486444073906741E+01
O    1.1313041873264233E+01    5.6568394091370422E+00    2.2481538681310091E+00
O    4.2889086332745698E+00    2.1146774663677435E+00    1.0586400462686868E+01
O    5.3988008779578998E+00    3.3584215761666538E+00    5.4859980676065936E+00
O    6.5093803283315674E+00    1.1870555907452582E+01    7.1448610258289169E-01
O    3.2525927590517481E+00    2.3434818290720689E+00    2.4132514479860041E+00
O    8.0086796499285349E+00    6.3565335203087390E+00    7.4977752039611198E+00
O    5.9288585788256398E+00    6.5082801666042851E+00    1.2195796701642495E+01
O    1.0610385294795648E+01    1.1861264429738505E+01    1.2200574174939904E+01
O    9.3403690756569073E+00    3.6890996107164851E+00    3.5273423653475007E+00
O    1.1111278086578333E+00    5.7890355206451609E+00    6.6473009501981712E+00
O    8.0194995343334714E+00    3.3269739508473020E+00    1.0869758841489828E+01
O    1.2376084676796173E+01    9.6748049821030637E+00    1.1772442429127571E+01
O    4.2098962719503028E+00    7.0914037241391465E+00    8.1403049780540613E+00
O    3.7839656891274109E+00    8.2290488153631056E+00    1.1585038748792737E+01
O    1.1076296436002840E+01    4.5429033328725374E+00    7.8327522122957038E+00
O    1.0435269965490516E+01    8.4217711221835252E+00    1.0328413587523131E+00
O    1.9828015281273914E+00    6.4005825276164527E+00    1.0353823655978504E+01
O    4.7041682767468140E+00    5.6227133611202751E-01    5.6097237226911316E+00
O    8.7178718108892905E+00    1.2242115811187322E+01    8.0976567639232222E+00
O    2.6327341025095006E+00    1.0520521873272735E+01    8.2905623926757696E-02
O    7.2399931187465976E+00    1.0511642196931628E+01    4.2432664330030301E+00
O    2.2807064781618935E+00    2.7612056427331516E-01    1.0807250569989241E+01
O    8.8632061138829101E+00    9.4642072500214314E-01    1.3400856795972527E+00
O    1.9443088048744062E+00    8.0893935868695070E+00    7.5355059867712297E+00
O    9.6598248299588487E+00    8.0355046451627157E+00    9.8565400345211831E+00
O    1.0903669851584363E+01    8.3307153998976524E+00    6.4773146916028450E+00
O    3.5124567442237509E+00    4.8693650210821762E+00    1.5451764009707918E+00
O    7.9775830453592125E+00    8.6026723333304087E+00    1.2050849513770657E+01
O    8.3694035479504532E+00    1.0019371052442921E+01    6.6836141760227106E+00
O    5.6546743218579030E+00    6.0810664230945513E+00    5.5283846573828130E+00
O    1.1742547847645341E+01    1.6241840639034066E+00    5.0859575162073183E+00
O    9.7585719615143294E+00    9.8110347715520660E+00    3.5364867774940478E+00
O    3.9627876574399785E+00    1.0548914651573968E+01    4.6848634346389515E+00
O    9.0110847254974580E-01    6.3699180308684742E+00    4.0614677068441782E+00
O    6.8825857356121807E+00    6.4084220847944637E+00    2.5046902581441279E+00
O    3.8180799995398882E+00    6.6391276583281345E+00    3.7786506828597148E+00
O    6.5639457974900770E+00    8.3081696931558930E+00    8.8142644496198059E+00
O    9.7792965800925202E+00    1.3440562766334208E-01    3.8518038249084694E+00
O    4.1040770115656455E+00    1.1645978558721305E+01    2.2167390496173995E+00
O    5.3225394392112859E+00    8.7370879819811691E+00    2.7520568939069170E+00
O    1.0008064086737157E+01    5.3735087324373412E+00    5.3757728940149834E+00
O    1.2260297782908900E+01    8.6464340629358478E+00    3.9709777917871034E+00
O    2.3431345497117269E+00    1.0747243885368617E+01    6.8128217267251987E+00
O    7.0016612916653944E+00    6.6240597665992096E-01    1.0534341561687945E+01
O    5.1725047982212384E+00    1.0218495319125287E+01    1.0357205957141169E+01
O    1.1186316801594348E+01    5.8851524495734662E+00    1.0299193203866022E+01
O    1.2277001782589632E+01    8.9569716794262799E+00    9.0707884188586778E+00
H    1.2357840653883830E+01    2.3335995753227663E+00    1.1187202568866100E+01
H    1.1946181003855404E+01    1.5338243304138113E+00    9.8820686313884707E+00
H    5.5871540557009096E+00    3.4492983737415002E+00    9.0442905792558896E+00
H    6.8930493554878360E+00    3.0239782285789243E+00    7.9852283560210777E+00
H   -1.4374297116925028E-01    1.5098214846057574E+00    7.5263531243332515E+00
H   -3.8865416711570755E-01    3.0530974755008633E+00    7.9298823362657140E+00
H    1.2176354233154502E+01    2.9746344065072314E+00    1.1924463434417902E+00
H    1.2991627169715107E+01    2.9143170210550822E+00    2.5155346727350452E+00
H    1.1517585159653446E+01    4.3255122446511534E+00    1.1434691026735496E+01
H    1.2784953658522497E+01    5.0635466714142483E+00    1.2040055000815148E+01
H    6.9671401310533057E+00    1.7387343976985605E+00    4.1849967664916576E+00
H    6.2296009063340145E+00    6.8946782722599498E-01    5.1579113656942255E+00
H    7.7273594948725712E+00    7.2216808380980382E+00    5.4888761780280744E+00
H    9.1691701765460980E+00    6.6296086344973508E+00    4.9460727574874026E+00
H    1.2846883768257465E+01    1.1781070688350763E+01    8.9005192602384984E+00
H    1.1983330930255267E+01    1.0563456761595694E+01    8.3168613221537697E+00
H    3.5249173108187399E+00    3.8402074967250353E+00    9.9510006399906530E+00
H    2.4297337650180153E+00    4.9330989925201330E+00    9.5245628999127945E+00
H    2.1731627523298060E+00    4.5583640086442783E+00    6.3013579985292774E+00
H    2.8563500932218995E+00    3.8576048156123743E+00    7.5841394106042959E+00
H    1.1402120515027194E+00    7.1967347480538981E+00    1.1594244541631216E+00
H    2.2451038169246083E+00    6.0044688738679133E+00    1.0028737587415313E+00
H    2.8159635337995379E+00    8.9701748198780127E+00    2.2995199891603373E+00
H    1.3289544665067927E+00    8.9939926467762685E+00    2.8983257079447169E+00
H    4.4550218369064112E+00    1.1540339425003980E+01    9.1644203320317352E+00
H    3.0505860859910223E+00    1.2474023132570411E+01    9.2862357274710874E+00
H    5.8591510063949590E+00    3.4580809397754115E+00    3.6616773633304103E+00
H    5.8328342793248851E+00    3.4003555439699071E+00    1.9823495664215700E+00
H    9.5573469725972260E-01    1.6451477306434978E+00    4.8407733836333611E+00
H    2.2282991647311428E+00    2.4813299829875808E+00    5.6872650230025519E+00
H    8.4431290012364091E+00    1.6050270153558044E+00    7.5442513472482915E+00
H    8.0660702671738793E+00    2.0137128293837305E+00    6.0338191030227755E+00
H    5.2179579256215050E+00    2.8944435585808059E+00    1.1676379626020164E+01
H    6.6808372388708035E+00    3.4137338960716357E+00    1.1974227321954970E+01
H    1.0787628803145456E+01    6.5181395670624047E+00    2.0987991922625766E+00
H    1.1679773573100892E+01    5.3602522151473844E+00    1.3423877172508214E+00
H    3.4353203684188873E+00    1.5422281194349585E+00    1.0899348788954656E+01
H    4.8360131199375607E+00    1.4266306188293667E+00    1.0089887937303416E+01
H    4.3860802582004768E+00    3.3639520802573442E+00    5.6883523933788345E+00
H    5.6851424648154758E+00    4.3694414775811623E+00    5.5473743673644380E+00
H    6.2905172776224774E+00    1.1824099733750094E+01    1.7188529435633038E+00
H    5.6254822935026363E+00    1.2118652077615895E+01    3.2827489265248067E-01
H    3.5448338646073094E+00    1.3905272139795406E+00    2.1815170599096838E+00
H    2.6082617908446868E+00    2.2011793681999108E+00    3.2448585926830318E+00
H    7.1214310944133121E+00    5.8746986475786667E+00    7.5240902705275499E+00
H    8.6555160452206739E+00    5.7349833608737377E+00    7.0296645633643733E+00
H    6.0004465275665488E+00    5.6511979030145847E+00    1.1673025686979569E+01
H    6.2576534574149356E+00    6.3249880564332708E+00    1.3168261180251754E+01
H    1.1110393485507950E+01    1.2636559250997633E+01    1.1695509562619282E+01
H    1.0264574453193466E+01    1.2297166054266514E+01    1.3044673119310062E+01
H    9.9063257583758269E+00    4.0523254539293001E+00    2.7328096710813039E+00
H    8.5320976562308353E+00    3.4662435851511484E+00    2.9418258347993609E+00
H    1.4549325922356471E+00    6.6684406032654939E+00    7.1063381287431051E+00
H    1.0013233336709582E+00    6.1758231958592997E+00    5.6553319488928411E+00
H    7.9834584102615214E+00    3.6965662970353690E+00    9.9295362401113305E+00
H    8.0702893407908576E+00    2.3148727995365208E+00    1.0750118168091142E+01
H    1.1741851247337413E+01    1.0457041172522617E+01    1.2099135806993727E+01
H    1.2145140467197967E+01    8.9346530857757838E+00    1.2412210742862094E+01
H    3.3373535314760936E+00    7.6121200308662349E+00    7.8531045761947258E+00
H    3.8438071109323722E+00    6.2417161568839790E+00    8.6114175129826034E+00
H    3.1132077807647813E+00    7.6196920981176106E+00    1.1070308623799509E+01
H    4.4752997918983555E+00    7.6309327249728005E+00    1.2076616644958706E+01
H    1.1595109347939314E+01    4.9846383472196258E+00    7.0588447442730713E+00
H    1.0300198428128505E+01    4.1359917521748439E+00    7.3179795841161761E+00
H    1.0066803629045140E+01    8.9449101926886243E+00    1.8648409458420676E+00
H    9.5721275817990303E+00    8.2654871620115706E+00    4.9820470823269469E-01
H    1.3188214514380989E+00    6.6901027276287843E+00    9.6503048603171031E+00
H    1.4021624816960008E+00    6.4512365186861995E+00    1.1227722789147274E+01
H    4.1225373888742620E+00    1.3301382656582812E+00    5.2661059713502230E+00
H    4.6863100279909755E+00    6.4323888153900044E-01    6.6181558656212278E+00
H    9.4703533710558183E+00    1.2334177792059997E+01    8.7409520154272897E+00
H    8.8486737260991468E+00    1.1353175343936519E+01    7.5414016813712079E+00
H    1.7346635260612688E+00    1.0023247752457223E+01    1.4531246290783187E-01
H    3.3374323737188489E+00    9.8445600332825318E+00   -2.3573946363458584E-01
H    7.0505799823405431E+00    1.1506005604268170E+01    4.1255571139610492E+00
H    6.4716019298294176E+00    9.9354966266943094E+00    3.7910911532789071E+00
H    1.3268589592365116E+00    5.8377393430186164E-01    1.1128929736798968E+01
H    2.5223619020798438E+00   -5.4513600115434568E-01    1.1460522258350643E+01
H    8.7695024945572140E+00    1.8730405160135948E+00    9.9029984538938887E-01
H    8.0908940305270196E+00    3.3984351975175348E-01    9.9164117999988277E-01
H    1.1203607709239380E+00    8.3716512006959878E+00    8.1792323344823146E+00
H    2.0883187077772738E+00    8.9941496096240581E+00    7.0138877035402416E+00
H    8.9092455661181180E+00    7.7938840102048443E+00    9.2222118549471439E+00
H    9.0650442925877464E+00    8.4492400512120085E+00    1.0614283870982085E+01
H    1.0125293357176421E+01    7.6972294325251411E+00    6.4507709233867532E+00
H    1.0499855152536337E+01    9.1992705817143818E+00    6.1555311709838767E+00
H    3.4971231604230346E+00    3.9586904012081017E+00    2.1122844778209582E+00
H    4.0584146620664541E+00    4.5845739999393835E+00    7.4299547661120724E-01
H    7.3547300979715198E+00    9.3907717765821275E+00    1.2034662471094025E+01
H    7.3341917810682471E+00    7.7711469163734570E+00    1.2054219542750124E+01
H    7.8271815569080747E+00    1.0161811172290522E+01    5.7814619639484475E+00
H    7.7120113817882672E+00    9.5092512996367056E+00    7.2843726304681669E+00
H    5.2899463871868786E+00    6.4889429596067023E+00    6.3929757321026415E+00
H    4.8678252868831029E+00    6.3175211180853506E+00    4.8313586361442269E+00
H    1.1521862541305675E+01    2.1923283626801586E+00    4.2496614328177955E+00
H    1.1222791846957469E+01    7.8414795598404874E-01    4.7829538343866069E+00
H    8.8119942350206397E+00    9.6778779613708803E+00    3.9666686831526179E+00
H    9.9342844970884556E+00    1.0814156988790128E+01    3.7816372858609655E+00
H    3.1082289528956561E+00    1.0546326407174277E+01    5.2868803913857310E+00
H    4.3132584907107487E+00    1.1455620653057768E+01    5.0610780320737367E+00
H    4.2220406784295023E-01    7.3045102192444009E+00    3.8013135649935132E+00
H    2.9772343931225009E-01    5.7724401932039653E+00    3.4526995513601979E+00
H    7.5860591209732640E+00    6.5678847601542216E+00    3.2915836809339187E+00
H    6.6758385347279283E+00    5.3831754309179942E+00    2.5200133494028063E+00
H    3.8532534172197677E+00    6.3060046348699723E+00    2.8123783749705344E+00
H    2.7953246440736770E+00    6.5485847389776213E+00    3.9537741358611358E+00
H    5.5553176437610512E+00    8.0120599991634958E+00    8.6583941104707254E+00
H    6.9993930795495638E+00    7.4780238970675024E+00    8.4104344163932403E+00
H    9.5571588990612497E+00    7.3280446145735278E-01    3.0174818797266463E+00
H    8.9237164310789812E+00    1.3437510586245902E-01    4.4076447871973894E+00
H    3.8482457315689973E+00    1.1174438455170609E+01    1.3441470566656613E+00
H    3.9626056228592299E+00    1.0964278466897161E+01    3.0102551897946843E+00
H    5.9449661422368418E+00    7.8891857853086886E+00    2.7995741535960956E+00
H    4.7652120121291670E+00    8.7229381074889787E+00    3.5906717261650187E+00
H    1.0905815782848808E+01    5.5302201800697510E+00    4.9342869455827199E+00
H    9.5033245323304492E+00    4.6732708376733401E+00    4.7171193166485725E+00
H    1.1491942104116625E+01    9.0018887406796786E+00    3.3983649908375830E+00
H    1.1959903629041163E+01    8.7851547644288708E+00    4.9401026898664968E+00
H    2.9404439844274690E+00    1.1333326721638683E+01    7.4881123877730529E+00
H    1.3993518978820654E+00    1.1120275827043063E+01    6.8063456551224419E+00
H    7.2181951384372747E+00    1.2809608485375698E-01    9.7032371258678776E+00
H    7.1648660378586806E+00    1.0772078745164028E-01    1.1367500988399881E+01
H    4.8113412051059612E+00    9.3237474535604434E+00    1.0837702423611770E+01
H    6.0816481698035849E+00    9.8060697913095201E+00    1.0186927365163587E+01
H    1.0565212262639553E+01    6.7306908548568911E+00    1.0314443980527500E+01
H    1.1239043366237841E+01    5.5938377372089176E+00    9.3143651163975214E+00
H    1.2188456954751517E+01    8.9927460848963854E+00    1.0127821223536511E+01
H    1.1415764242459435E+01    8.6329965781003271E+00    8.6365688433564376E+00
     &END COORD
     &VELOCITY
           2.4353373553379399E-04   -1.2006097602629990E-04    8.6380096427160266E-05
           5.1311970178333406E-05   -1.2708266199894203E-06   -1.4048482609278778E-05
          -1.3298767757315120E-04   -8.3910828185020090E-05   -1.7227772179793200E-04
           3.2311111387379007E-04   -2.8974228281186773E-04    2.2815855771152378E-04
           3.6807112799829700E-04   -1.6540691871887888E-04    8.2168021723891501E-05
           8.6843810077874838E-05   -1.6733145785124046E-04    2.3233906169803793E-04
          -1.9144732815428795E-04    3.6490306373143778E-05    1.7692428816716698E-04
          -2.7339212137188836E-04   -2.0181330313461522E-06   -2.5185283188540111E-04
          -2.9114797156636323E-04    1.4202524657009637E-04   -9.4207613532751257E-05
           4.9604684382240388E-05    1.9764986075604602E-04   -3.9675655902920385E-05
          -1.0338266296062674E-04    2.5533554886904579E-04   -1.7753567723130620E-04
           1.2393271803155025E-04   -5.1522817962460655E-05    2.4869105054750590E-04
           3.7171385611253493E-05    1.3912087635281463E-04   -2.6001104941662860E-04
          -9.0584380439987156E-05   -5.4256969623391361E-05    1.3571849163625981E-04
          -1.3532069033503769E-05    2.9312535024568677E-04   -1.1035216194530836E-04
           3.4365663856443697E-04    1.2592891247441127E-04    1.2984947778544459E-04
           3.1061310688119511E-05   -2.1491061234698281E-04    1.3642911352117275E-04
          -1.1197980598590282E-04    8.8708519143763288E-05    8.1551359030482664E-05
           7.2553977151777646E-05   -7.4882564047728289E-05   -3.7593240427882773E-05
          -3.9311008769528591E-05    7.7794970775792903E-05   -4.9503853884192151E-05
           1.3050850736102555E-04    3.2997372840938613E-05    2.3384938882146784E-04
          -2.3506710107488725E-04   -1.3038351983372389E-04   -7.8872779759973739E-05
           2.2656471395881834E-04    3.8984618351656769E-06   -1.0674489559820343E-04
          -4.8910812396731453E-04   -8.8250996373646652E-05    4.1168871692984731E-05
          -2.3516505104465975E-04    3.0141522873753567E-05   -4.3307021529224588E-05
           2.3874077440311846E-04    1.6479626533123657E-04   -6.5961174423994597E-06
           2.1570400442037994E-06   -3.6687604474088930E-04    1.9056449024749344E-05
           1.5263290745819465E-04   -4.5423683353596449E-05   -4.7828240980999875E-05
          -2.4361660474306348E-04   -1.5799538490218897E-04    1.4701044899569126E-04
          -4.6332302281353285E-05    6.6958418739565502E-05   -1.4093723621058527E-04
           7.0402526346272063E-05    1.4787938508785894E-04    2.3294646136769276E-04
          -1.0541845847211776E-04    9.0959878372696837E-05    1.4239486316648358E-04
           3.9447066267599682E-04    6.7697585285403055E-05    1.1078543439985682E-04
          -7.7642050401096545E-05   -1.2536442818181584E-04   -1.9896428319815461E-04
           4.0834731830597596E-04    1.4767279244971729E-04    2.0697580191179367E-05
          -2.3059415805128466E-04   -1.2069261926314731E-04    1.1528847271941125E-04
          -2.2453224222943472E-04    3.2508315209883037E-04   -1.1011175869234043E-04
          -2.5223464561259516E-05    3.9102949516825410E-04    1.6353834116273442E-04
           2.2717843314068394E-05   -6.2765751651066387E-06    4.4671040027706836E-05
          -2.2749659830921824E-04   -6.9576305496684715E-06    6.3788388337747030E-05
          -7.5841302718622272E-05    8.7087799012991460E-05   -2.6939094015312722E-04
          -1.5166914071684798E-04   -1.6482446184572301E-04   -8.8619423400415002E-05
           8.3255811673629616E-06   -5.3065384630727903E-05   -7.5044278374838814E-05
           6.6403553282965824E-05    1.1865592146472354E-04   -1.6876922794146194E-04
          -3.6854176965767587E-04   -4.4916679521531062E-04   -7.2212204721107734E-05
          -1.2514834926103904E-04   -2.1658705550669030E-04    1.4279407554183510E-05
           1.5301292386712560E-04    7.8212466736477201E-05   -2.6042789655557732E-04
           1.1597437780920342E-04    1.3153166326541384E-04    1.9714489345624431E-05
          -2.7586288467894167E-05    4.9135802992966245E-05   -8.2847135186967850E-05
           1.7533037836798895E-04   -1.0200057778683925E-04   -1.5955910869879745E-05
           9.1305293488379471E-06   -1.7063363096573228E-04   -1.2704533408645257E-04
           2.0532414019972073E-04   -1.8523108331201964E-04    1.5576953260087821E-04
          -9.5082342049036835E-05    3.8898283928868977E-04    6.8143354602047989E-05
          -3.3468517683421682E-05    1.1413973594228198E-04    4.8372670608706949E-05
          -3.2167308794401825E-04   -6.7373694362632991E-05   -3.3440505798348148E-04
          -1.0565699375648860E-04   -1.8612919959638396E-04   -4.1185047195849631E-05
           3.0227443463983487E-04   -1.9476823994925617E-08   -4.0898192669311997E-05
           3.4132859750895302E-04   -7.5666618758272284E-05    3.1369871723625320E-04
           4.8774504502263796E-06    9.5432986766015013E-05    4.0463993792029723E-05
          -7.3525642130660261E-05   -1.1023344657376130E-04   -1.6990266178478541E-04
          -9.5305467321255081E-05    1.5924492797694443E-04    1.0050784054972943E-04
           2.9577992716499146E-04   -2.0302338272315738E-04   -3.8000268571970872E-06
           3.3426751498773524E-05    2.9960856877008026E-05    2.2957098675586091E-05
           2.1247046209647212E-04   -1.8773508816222713E-04   -7.1323934922915244E-05
          -4.5158839414009079E-04   -3.6143060084603426E-05   -6.1976176341860332E-04
           9.6706711087792257E-04   -4.1494673938591824E-04   -1.4270244721847440E-03
           7.4657709738692448E-04    7.4979183340640756E-04   -2.9716006621237289E-05
           1.1944835029839493E-03   -2.4887952169779523E-04   -4.6965328169190212E-04
           3.3415678177755177E-04   -4.4057529884731605E-04   -4.5347033642963050E-04
           1.1012796130016639E-03    2.9083917954073822E-04   -1.2194190254902761E-03
           2.2415342342837038E-04    1.5937251548208994E-03   -3.7781211910477920E-04
           1.0073465758382329E-03   -6.8157982680624616E-04    2.6183752026047100E-04
          -6.9769183580175315E-05    2.4841597097682504E-05   -1.3349984294626778E-04
          -6.5395783737484290E-04   -1.1729839035710162E-04    1.7209949835123779E-04
          -6.3912725034078269E-04   -9.4833908162392970E-04   -2.5753189732062771E-04
          -3.9187509729660022E-04   -2.4417797176851444E-04   -5.0822500048128836E-04
           2.8904185309107020E-04   -2.0455475311586171E-03   -7.4488003306618158E-04
           3.8533435937654294E-04   -1.5649598638796610E-03   -8.1999331590867778E-04
           6.6163782210385349E-04   -2.0530137991970777E-04   -4.7022778536888346E-04
          -4.8571775205290849E-05   -1.4283455067349584E-03    8.4970777265185331E-04
          -5.1040502071747528E-04    9.0124041076778674E-04   -4.3717828656325705E-04
           2.7962496774819751E-04    1.1112791909959318E-04   -5.6980553870638554E-04
          -1.5080494509642068E-03    7.3672779722305521E-04   -5.7541529098160477E-06
           2.4475429621515838E-04    9.7437756643112316E-04   -4.8339679945299044E-04
          -8.5981680083448218E-05    5.9512037268972314E-04   -4.8949501760732066E-05
          -6.8266467564289334E-04   -5.5567223334357764E-04    7.1350489602852569E-04
           4.8033714481732627E-05    6.5011279411179965E-04   -7.7943973950052943E-04
           8.0491911116722175E-05   -7.8343749754973774E-04    7.2435736497407301E-04
           2.5839724569939979E-04    7.5578985200872300E-05   -5.8507007759308022E-04
           3.2468632066602577E-04   -2.7324024725582368E-04    2.5249479693890460E-04
          -1.0539062839347241E-03    5.0616494373337696E-04    7.1049452486678360E-04
           8.0541579377405763E-04   -1.4428395473972777E-04   -9.1111624630419753E-04
          -9.3901405515196205E-05   -1.7440336409711710E-04   -6.6695306718673629E-04
          -5.9667439631501114E-04    2.1020879938492294E-03   -1.6524975842660964E-04
          -5.9413689338918380E-04   -1.8314218672929469E-04   -3.0878549941900448E-04
          -1.1299139621911594E-04   -1.9706794255080820E-04    5.4164798335944566E-04
           3.7379192866024598E-04   -2.2187500988529848E-04   -3.6215118741856321E-04
          -5.2111287107340710E-04    8.9091209793023326E-04   -5.6207250900114933E-04
           6.7919292603838520E-04    1.3343181455594403E-04   -5.4958333089362248E-04
          -5.0955912345773530E-05   -7.8811310900708852E-04    5.3306738437006998E-04
          -8.4615276358074759E-05   -4.3969810880335942E-04   -1.5061331385194088E-03
           1.9621493944915676E-04    7.0658921104244348E-04    7.9834173947992948E-04
          -3.1086266728838326E-04    7.4710976671369235E-04    4.9983161017235704E-04
          -7.7088036735395947E-04    8.7923123996757203E-04    4.4906439901598274E-04
           4.7843808738106818E-04    2.0885304147827725E-04    9.9081078439871911E-04
           2.7383478092275510E-04   -1.2076470160206595E-05    2.0312636572862547E-03
           2.2238602224365880E-04    4.5732113705088486E-04    2.0297495633799477E-03
          -1.3983314820095733E-04    6.4110517558970857E-04    2.3541721874505093E-04
           1.0634351964376296E-03   -8.1406755448582089E-04    2.5592615930905170E-04
           5.5764666824041945E-04   -2.4944020397046321E-04    1.0095491375828787E-03
           8.2355304836062354E-04    4.6265598282878718E-04    1.0873683440576361E-03
           1.0554542732529896E-03    1.4711843503837905E-03   -1.9257994643508082E-04
          -5.9301436636971126E-04    1.4338243179484816E-03   -1.0518598720294483E-03
           1.7009542630723419E-04   -2.7229621441650652E-04   -1.8275874433039985E-04
          -3.9794180045484175E-04    1.1377334676086913E-03    1.5111872074382348E-04
          -2.1010779019685853E-04    2.5908254733806880E-04    1.2965840741168172E-03
           5.7014687398120381E-04    4.3663748723074466E-04   -1.4622705924541507E-04
           2.7451658005963681E-04   -1.1055104188295863E-04   -2.7011911347407549E-04
          -1.5488517943889070E-03   -4.8268639176948092E-04    1.0661735519876426E-03
           1.1223093817794473E-04    6.1336181166898006E-04   -2.4337739021410015E-04
          -8.4642821009168795E-04    2.7314900747521298E-04    4.4966165017212476E-04
          -9.0281864258629635E-04    4.6471968391474877E-04   -2.6632644267429679E-04
          -1.1909602595188032E-03    3.2546725726705899E-05   -5.5177771586547019E-05
           2.6878284877873595E-04   -1.1019214430990968E-03    6.7804196597508692E-04
           3.1926309390375665E-04    1.0177813137708109E-03   -3.0847823993418314E-04
          -4.2284471691672446E-04    4.3959034012216644E-04   -8.2960000477418365E-04
           4.5763012014619529E-04   -7.2873611064663705E-04   -1.9810871956511919E-04
          -2.5435809608459969E-04   -2.9857092394899810E-04    4.0812967128414277E-04
          -1.7369381694743734E-04    6.5701533357187243E-04    1.2674523034477349E-03
           2.5615963331752684E-04   -1.0911306591077671E-06    1.1679000472584456E-03
          -1.6308109821190940E-05    1.3149337651059102E-03    1.0407917756704191E-03
           8.9763869713230769E-04   -3.3652501427142097E-04    5.8254652397977448E-04
           1.0486726919028805E-03    1.4387708622864832E-04   -1.3227328924909022E-03
          -7.1280006662204618E-04    3.7576614693165075E-04   -7.8229807968071435E-04
          -4.9597517521684333E-05    2.0943390443221875E-05   -3.3577883353708555E-04