 # Version information for this restart file 
 # current date 2023-08-03 12:59:11.313
 # current working dir /mnt/lustre/indy2lfs/work/tc047/tc047/mrnuff-cirrus/cp2k/nuff-benchmarks/H2O-64-1node
 # Program compiled at                               Wed Aug 2 15:51:15 BST 2023
 # Program compiled on                                             cirrus-login2
 # Program compiled for                                             Cirrus-intel
 # Source code revision number                                       git:d8d7100
 &GLOBAL
   PRINT_LEVEL  LOW
   PROJECT_NAME H2O-64
   RUN_TYPE  MD
 &END GLOBAL
 &MOTION
   &MD
     ENSEMBLE  NVE
     STEPS  10
     TIMESTEP     4.9999999999999994E-01
     STEP_START_VAL  10
     TIME_START_VAL     4.9999999999999982E+00
     ECONS_START_VAL    -1.1007623251464911E+03
     TEMPERATURE     3.0000000000000000E+02
     &AVERAGES  T
       &RESTART_AVERAGES
         ITIMES_START  1
         AVECPU     6.3605619213311000E+00
         AVEHUGONIOT     0.0000000000000000E+00
         AVETEMP_BARO     0.0000000000000000E+00
         AVEPOT    -1.1010668154404116E+03
         AVEKIN     3.0069890126028503E-01
         AVETEMP     3.3142439675486423E+02
         AVEKIN_QM     0.0000000000000000E+00
         AVETEMP_QM     0.0000000000000000E+00
         AVEVOL     1.2909542132085600E+04
         AVECELL_A     2.3458682268415796E+01
         AVECELL_B     2.3458682268415796E+01
         AVECELL_C     2.3458682268415796E+01
         AVEALPHA     9.0000000000000000E+01
         AVEBETA     9.0000000000000000E+01
         AVEGAMMA     9.0000000000000000E+01
         AVE_ECONS    -5.7036316527643480E+00
         AVE_PRESS     0.0000000000000000E+00
         AVE_PXX     0.0000000000000000E+00
       &END RESTART_AVERAGES
     &END AVERAGES
   &END MD
 &END MOTION
 &FORCE_EVAL
   METHOD  QS
   &DFT
     BASIS_SET_FILE_NAME GTH_BASIS_SETS
     POTENTIAL_FILE_NAME POTENTIAL
     &SCF
       SCF_GUESS  ATOMIC
       &OT  T
         MINIMIZER  DIIS
       &END OT
       &PRINT
         &RESTART  OFF
         &END RESTART
       &END PRINT
     &END SCF
     &QS
       EPS_DEFAULT     9.9999999999999998E-13
       EXTRAPOLATION  PS
       EXTRAPOLATION_ORDER  3
     &END QS
     &MGRID
       CUTOFF     2.8000000000000000E+02
       REL_CUTOFF     3.0000000000000000E+01
     &END MGRID
     &XC
       DENSITY_CUTOFF     1.0000000000000000E-10
       GRADIENT_CUTOFF     1.0000000000000000E-10
       TAU_CUTOFF     1.0000000000000000E-10
       &XC_FUNCTIONAL  NO_SHORTCUT
         &PADE  T
         &END PADE
       &END XC_FUNCTIONAL
     &END XC
   &END DFT
   &SUBSYS
     &CELL
       A     1.2413800000000002E+01    0.0000000000000000E+00    0.0000000000000000E+00
       B     0.0000000000000000E+00    1.2413800000000002E+01    0.0000000000000000E+00
       C     0.0000000000000000E+00    0.0000000000000000E+00    1.2413800000000002E+01
       MULTIPLE_UNIT_CELL  1 1 1
     &END CELL
     &COORD
O    1.2265691221627902E+01    1.3554379171424213E+00    1.0875430684012695E+01
O    6.4523069643984901E+00    3.7059062633719400E+00    8.6472636643113425E+00
O    7.7675673951369248E-02    2.1684371536246378E+00    8.2608521123256100E+00
O    1.2086330589737100E+01    2.6383252619362247E+00    2.1708326975636738E+00
O    1.2290560196510295E+01    4.1705949204699859E+00    1.2102197043947420E+01
O    7.2035596726110356E+00    9.4146485856911932E-01    4.7596718561380982E+00
O    8.3332223409533590E+00    7.2077504740971863E+00    4.6827221582125889E+00
O    1.2331825707496051E+01    1.1521085308244940E+01    8.0815299734465977E+00
O    3.2742345188961579E+00    4.4591086965599853E+00    9.1745403213677044E+00
O    2.8601595120416143E+00    3.7871245016871908E+00    6.5410915744247093E+00
O    1.3797112886109855E+00    6.3917880581901141E+00    5.6509704637618785E-01
O    1.8717761880990620E+00    8.6859262981941914E+00    2.0908519529190945E+00
O    3.7724064802103343E+00    1.2107291458155808E+01    8.6206045004982048E+00
O    6.4253589961830153E+00    3.6667889351993979E+00    2.7875811960065424E+00
O    1.9996776817698734E+00    1.8525814940778025E+00    4.8671276287697189E+00
O    8.2870232697559736E+00    2.4222003421165086E+00    6.9417328333568520E+00
O    5.7524951496893379E+00    3.3354107633529106E+00    1.2486441927304268E+01
O    1.1313051414990095E+01    5.6568428932996335E+00    2.2481541693217357E+00
O    4.2889057121707586E+00    2.1146768890845173E+00    1.0586394798004854E+01
O    5.3987998378703042E+00    3.3584238927998422E+00    5.4860023554711557E+00
O    6.5093881290544111E+00    1.1870556687544088E+01    7.1448877052671012E-01
O    3.2525895246416630E+00    2.3434817325715236E+00    2.4132492711214706E+00
O    8.0086831362982185E+00    6.3565304698358949E+00    7.4977786194835918E+00
O    5.9288605826881078E+00    6.5082868323258642E+00    1.2195795095729453E+01
O    1.0610386311436548E+01    1.1861263632461053E+01    1.2200578573099012E+01
O    9.3403643295945216E+00    3.6891058088922302E+00    3.5273419115089308E+00
O    1.1111299843541498E+00    5.7890416771149686E+00    6.6473030303814635E+00
O    8.0194980711238024E+00    3.3269761635710378E+00    1.0869760158477524E+01
O    1.2376083013546618E+01    9.6748017485164137E+00    1.1772437464201866E+01
O    4.2098973265835111E+00    7.0914059878457181E+00    8.1403049713510871E+00
O    3.7839651612970351E+00    8.2290477965539122E+00    1.1585029598452721E+01
O    1.1076298200094987E+01    4.5429098149790539E+00    7.8327544665100861E+00
O    1.0435269832523129E+01    8.4217540714631003E+00    1.0328469115847456E+00
O    1.9827956974872580E+00    6.4005653370061957E+00    1.0353833557955920E+01
O    4.7041684252649443E+00    5.6226860857458871E-01    5.6097297040744509E+00
O    8.7178686987316887E+00    1.2242114021519104E+01    8.0976596680829402E+00
O    2.6327397232809422E+00    1.0520524625894508E+01    8.2914708818961902E-02
O    7.2399912123022236E+00    1.0511639516828573E+01    4.2432763972059826E+00
O    2.2807117212628372E+00    2.7612433538581799E-01    1.0807249794939521E+01
O    8.8632074472443527E+00    9.4642167576059166E-01    1.3400870233089868E+00
O    1.9443010564853977E+00    8.0893907787971511E+00    7.5354954085064962E+00
O    9.6598268770605777E+00    8.0354923931291697E+00    9.8565408159861878E+00
O    1.0903669231891193E+01    8.3307122625610166E+00    6.4773119488925186E+00
O    3.5124665132315251E+00    4.8693737552338208E+00    1.5451810315134249E+00
O    7.9775887181865563E+00    8.6026768360209722E+00    1.2050859810705251E+01
O    8.3694028848612181E+00    1.0019375195784679E+01    6.6836126003785701E+00
O    5.6546609223314190E+00    6.0810554249666229E+00    5.5283899539327130E+00
O    1.1742552751790610E+01    1.6241883377932371E+00    5.0859546263628106E+00
O    9.7585749951473701E+00    9.8110344561912886E+00    3.5364834297912777E+00
O    3.9627902122681191E+00    1.0548916241539365E+01    4.6848631718496687E+00
O    9.0110924202404430E-01    6.3699160958047685E+00    4.0614660823325845E+00
O    6.8825876156876005E+00    6.4084176011472760E+00    2.5046872105492111E+00
O    3.8180772811827470E+00    6.6391261700161381E+00    3.7786504202964997E+00
O    6.5639467316230320E+00    8.3081673455500731E+00    8.8142645601751237E+00
O    9.7792980437880832E+00    1.3440093692242375E-01    3.8518018541300187E+00
O    4.1040698796140020E+00    1.1645975677414327E+01    2.2167371830935676E+00
O    5.3225429743820856E+00    8.7370886225245830E+00    2.7520608154200921E+00
O    1.0008058591962522E+01    5.3735029665408041E+00    5.3757689310938392E+00
O    1.2260293130221438E+01    8.6464312203551348E+00    3.9709765249997826E+00
O    2.3431385601210066E+00    1.0747244557908944E+01    6.8128199420223128E+00
O    7.0016868551874358E+00    6.6241368924081656E-01    1.0534335410490787E+01
O    5.1724988369890621E+00    1.0218489635933006E+01    1.0357201131261718E+01
O    1.1186305513789584E+01    5.8851551015739707E+00    1.0299187716035533E+01
O    1.2277001260224310E+01    8.9569800093949716E+00    9.0707829070917381E+00
H    1.2357860830731836E+01    2.3336130669252628E+00    1.1187155568543536E+01
H    1.1946220241711023E+01    1.5338173488073086E+00    9.8820453883929122E+00
H    5.5871853426089011E+00    3.4492613541407868E+00    9.0443492587056582E+00
H    6.8931134907709790E+00    3.0239505626689551E+00    7.9852740730676794E+00
H   -1.4374932807749793E-01    1.5098328419609464E+00    7.5263433502059121E+00
H   -3.8863081470393479E-01    3.0530889725934780E+00    7.9297897962465989E+00
H    1.2176296489828468E+01    2.9747369580385246E+00    1.1924332874810177E+00
H    1.2991672705128570E+01    2.9142153785987488E+00    2.5155247900314825E+00
H    1.1517567593231753E+01    4.3255900368445293E+00    1.1434680677253061E+01
H    1.2784986513018151E+01    5.0635244336048073E+00    1.2040091012078987E+01
H    6.9670622346700313E+00    1.7387225601622140E+00    4.1850000735930442E+00
H    6.2296039666331948E+00    6.8947303211094013E-01    5.1579542956582110E+00
H    7.7273735081137218E+00    7.2217674062566690E+00    5.4888583172762413E+00
H    9.1692072167870755E+00    6.6296203275139716E+00    4.9460943069404468E+00
H    1.2846855747609762E+01    1.1781022044300999E+01    8.9005547148165345E+00
H    1.1983278974113770E+01    1.0563476629178295E+01    8.3168526530914662E+00
H    3.5248483355810158E+00    3.8400890178710654E+00    9.9509258876191460E+00
H    2.4297317699945777E+00    4.9331020171901967E+00    9.5245232744317203E+00
H    2.1731938184005095E+00    4.5584091436371557E+00    6.3013341591596186E+00
H    2.8564526256043097E+00    3.8576860117975373E+00    7.5841383258266104E+00
H    1.1402539117557220E+00    7.1967454275137284E+00    1.1594208983720167E+00
H    2.2451171240552315E+00    6.0044560574520061E+00    1.0028292980712454E+00
H    2.8160026093261163E+00    8.9701473038208697E+00    2.2994247561326620E+00
H    1.3289450005949053E+00    8.9940773536407672E+00    2.8983100092883487E+00
H    4.4550591679045883E+00    1.1540320632851577E+01    9.1643576662466941E+00
H    3.0505711472947921E+00    1.2474005028879787E+01    9.2862522483546410E+00
H    5.8591666421270805E+00    3.4580100700776493E+00    3.6616851024567905E+00
H    5.8328742264890749E+00    3.4002922178485835E+00    1.9823307374076491E+00
H    9.5572611638993410E-01    1.6451712168315675E+00    4.8407909619530987E+00
H    2.2283444181417855E+00    2.4812713852575619E+00    5.6873030305148635E+00
H    8.4431245059902515E+00    1.6049877318589445E+00    7.5442116124543954E+00
H    8.0660994841681237E+00    2.0136933689786680E+00    6.0338203198000890E+00
H    5.2179741117744971E+00    2.8944033191688892E+00    1.1676399084693339E+01
H    6.6808709760189924E+00    3.4137078887781587E+00    1.1974300217660412E+01
H    1.0787579562973441E+01    6.5181197889747207E+00    2.0988579269070402E+00
H    1.1679706778665457E+01    5.3602110737706461E+00    1.3423727078773589E+00
H    3.4353057955578858E+00    1.5422699911175271E+00    1.0899340815425033E+01
H    4.8360485702945244E+00    1.4266340285649943E+00    1.0089916384864461E+01
H    4.3860607829044698E+00    3.3639145070872760E+00    5.6882685052595559E+00
H    5.6851714190648881E+00    4.3694444329672875E+00    5.5474154036566325E+00
H    6.2904804048387799E+00    1.1824217953334474E+01    1.7188480100643886E+00
H    5.6254641812453912E+00    1.2118531010247692E+01    3.2824508347062892E-01
H    3.5448573483477204E+00    1.3905341519238257E+00    2.1815279666969229E+00
H    2.6083113748093614E+00    2.2011598085358859E+00    3.2448945681039167E+00
H    7.1214218837230963E+00    5.8747071446835752E+00    7.5240572137579180E+00
H    8.6555160568688212E+00    5.7350202337791769E+00    7.0296204332788577E+00
H    6.0003836070029264E+00    5.6511562312010142E+00    1.1673082486798572E+01
H    6.2576732802191080E+00    6.3249637437984498E+00    1.3168254323635315E+01
H    1.1110396422510963E+01    1.2636582150483607E+01    1.1695466243762878E+01
H    1.0264522667314266E+01    1.2297177086809647E+01    1.3044653989288499E+01
H    9.9063833653605009E+00    4.0522743932581324E+00    2.7328440010559114E+00
H    8.5320879706476287E+00    3.4662362318688644E+00    2.9418373706987264E+00
H    1.4550165199536156E+00    6.6684268578474599E+00    7.1063081480778072E+00
H    1.0011846960108897E+00    6.1757849888513512E+00    5.6553257210843979E+00
H    7.9834383168153211E+00    3.6965600156462091E+00    9.9295254035484568E+00
H    8.0703050731562698E+00    2.3148761700540743E+00    1.0750109953178354E+01
H    1.1741856955038900E+01    1.0457046792694099E+01    1.2099116522328695E+01
H    1.2145113035773582E+01    8.9347057518291333E+00    1.2412278015077131E+01
H    3.3373441398215951E+00    7.6121189967395724E+00    7.8531113790446412E+00
H    3.8437404997803211E+00    6.2417170006995448E+00    8.6113781620860781E+00
H    3.1132048694108367E+00    7.6196674890883695E+00    1.1070334639355920E+01
H    4.4752609606009122E+00    7.6309535586689892E+00    1.2076672515554906E+01
H    1.1595109075910516E+01    4.9845971853209790E+00    7.0588086549215836E+00
H    1.0300179646157165E+01    4.1359780470034604E+00    7.3180405599937828E+00
H    1.0066859028657699E+01    8.9451142006840456E+00    1.8647420070761165E+00
H    9.5720897423751392E+00    8.2655563920175332E+00    4.9823227537673376E-01
H    1.3189876664558504E+00    6.6902311101740661E+00    9.6502228821048917E+00
H    1.4021547291056282E+00    6.4513381197011492E+00    1.1227717775738489E+01
H    4.1225227084817213E+00    1.3300958457232890E+00    5.2660310885245911E+00
H    4.6863014012486337E+00    6.4332081832298815E-01    6.6181574626620039E+00
H    9.4703739840674999E+00    1.2334173896527856E+01    8.7409121785593502E+00
H    8.8486705805519836E+00    1.1353162651343462E+01    7.5414161566642894E+00
H    1.7346243376506982E+00    1.0023269196055059E+01    1.4521089677751164E-01
H    3.3374330937769852E+00    9.8445733321795945E+00   -2.3578650080702532E-01
H    7.0506121547578466E+00    1.1505999570464024E+01    4.1254822367655004E+00
H    6.4716144239808191E+00    9.9355117782159734E+00    3.7910213271467943E+00
H    1.3268017188785026E+00    5.8361467399903344E-01    1.1128891425288129E+01
H    2.5223736851222101E+00   -5.4515284208278880E-01    1.1460505429957170E+01
H    8.7695034601091404E+00    1.8730261306346596E+00    9.9022339814270521E-01
H    8.0909040111767681E+00    3.3982611891732889E-01    9.9167137075832279E-01
H    1.1204885569467671E+00    8.3716616986634467E+00    8.1793585849232375E+00
H    2.0883466262745936E+00    8.9941815003034655E+00    7.0139251045159998E+00
H    8.9092338083700433E+00    7.7940115337035127E+00    9.2222012190836562E+00
H    9.0650360993651908E+00    8.4492997048300591E+00    1.0614237103704296E+01
H    1.0125261936622120E+01    7.6972651388061584E+00    6.4508008035739604E+00
H    1.0499882480553506E+01    9.1992905673856864E+00    6.1555510652609815E+00
H    3.4970438967309931E+00    3.9586491104197652E+00    2.1122397671538802E+00
H    4.0583866165583267E+00    4.5845492847973910E+00    7.4299433254015534E-01
H    7.3547019310357866E+00    9.3907165959532133E+00    1.2034560547161288E+01
H    7.3341204126242507E+00    7.7711803058269711E+00    1.2054181675347385E+01
H    7.8271359122353861E+00    1.0161864557796733E+01    5.7814824441729407E+00
H    7.7120973949995602E+00    9.5091968613052060E+00    7.2843865451266279E+00
H    5.2900515914215172E+00    6.4890676352473431E+00    6.3929667695953318E+00
H    4.8679125606969702E+00    6.3175498760842057E+00    4.8312977475730605E+00
H    1.1521813479056133E+01    2.1923134294362892E+00    4.2496119720284833E+00
H    1.1222779192576654E+01    7.8413521722495971E-01    4.7830452887772532E+00
H    8.8119906724502020E+00    9.6778997188622533E+00    3.9666598404570186E+00
H    9.9342635723549240E+00    1.0814166420179040E+01    3.7816690213250967E+00
H    3.1082412934277994E+00    1.0546280663962063E+01    5.2869156842283278E+00
H    4.3132121960851411E+00    1.1455647024803890E+01    5.0610955611754909E+00
H    4.2219844129778500E-01    7.3045251091104566E+00    3.8013411241080219E+00
H    2.9766507545169302E-01    5.7724531525170057E+00    3.4527167705324664E+00
H    7.5860409191410119E+00    6.5679521129190315E+00    3.2915919983255275E+00
H    6.6758593794493652E+00    5.3831662367036035E+00    2.5200074513621504E+00
H    3.8532901491627967E+00    6.3060011184120457E+00    2.8123839800106873E+00
H    2.7953202289158328E+00    6.5486583544769603E+00    3.9537589710663386E+00
H    5.5553109353381354E+00    8.0120428669699244E+00    8.6584496783236400E+00
H    6.9993998569157023E+00    7.4780307290169716E+00    8.4104207149776826E+00
H    9.5571587465052641E+00    7.3282222377277928E-01    3.0174934412141337E+00
H    8.9237161921950676E+00    1.3434744964867246E-01    4.4076415640867355E+00
H    3.8482518861389621E+00    1.1174452569524302E+01    1.3441132624696328E+00
H    3.9626527205398676E+00    1.0964284064940781E+01    3.0102559476074204E+00
H    5.9449721154893327E+00    7.8892003227197751E+00    2.7995602859871762E+00
H    4.7651318478104718E+00    8.7229145811685918E+00    3.5906365527452051E+00
H    1.0905855590462284E+01    5.5302297929428708E+00    4.9343939976040820E+00
H    9.5033533984918108E+00    4.6732861306341311E+00    4.7170650155463374E+00
H    1.1491935736740167E+01    9.0019296606963035E+00    3.3983882088430661E+00
H    1.1959938005669120E+01    8.7851571773517190E+00    4.9401248591307079E+00
H    2.9404442925200938E+00    1.1333366123652523E+01    7.4880999173575402E+00
H    1.3993361021505537E+00    1.1120249168991537E+01    6.8063795104244500E+00
H    7.2180390176118179E+00    1.2798394447470432E-01    9.7032741476541950E+00
H    7.1646531631432602E+00    1.0771817698138857E-01    1.1367537673088330E+01
H    4.8113494103453984E+00    9.3237233228417100E+00    1.0837722105749094E+01
H    6.0817040348705138E+00    9.8061889870779133E+00    1.0186961890390393E+01
H    1.0565212968845941E+01    6.7306912582549536E+00    1.0314509384118574E+01
H    1.1239212631589133E+01    5.5937306260537483E+00    9.3143955162383403E+00
H    1.2188441116721927E+01    8.9926759698742700E+00    1.0127830375806802E+01
H    1.1415745606508162E+01    8.6329943934291933E+00    8.6365927756281575E+00
     &END COORD
     &VELOCITY
           2.4352895689729316E-04   -1.2005787686856431E-04    8.6437472843213178E-05
           5.1308833496915717E-05   -1.2157267874889400E-06   -1.4102765548056698E-05
          -1.3301557325170525E-04   -8.3933401104409084E-05   -1.7228315507924525E-04
           3.2310035322854759E-04   -2.8975142829616019E-04    2.2821840321570809E-04
           3.6814672511795089E-04   -1.6545926054243430E-04    8.2260305156874394E-05
           8.6833533915550064E-05   -1.6730042257767768E-04    2.3230467887968057E-04
          -1.9151490594537451E-04    3.6505951846658584E-05    1.7677888658426214E-04
          -2.7334923677270804E-04   -2.0364577275747800E-06   -2.5180936275433745E-04
          -2.9104530009426370E-04    1.4206649360447822E-04   -9.4225803956458128E-05
           4.9611736871944582E-05    1.9755004721368135E-04   -3.9672360393922830E-05
          -1.0339976255351614E-04    2.5535991311221299E-04   -1.7751224400535062E-04
           1.2391364052877899E-04   -5.1653553927015315E-05    2.4858753532743595E-04
           3.7151260902210451E-05    1.3910103950707720E-04   -2.6002426241722334E-04
          -9.0568511029881949E-05   -5.4222395370635242E-05    1.3572623090185414E-04
          -1.3545521085712389E-05    2.9306779465290266E-04   -1.1045795169675770E-04
           3.4361721983009439E-04    1.2593016463793752E-04    1.2983789202322427E-04
           3.1082499004574110E-05   -2.1485637728388795E-04    1.3648810971715698E-04
          -1.1186997159012763E-04    8.8655851501931774E-05    8.1590272417307621E-05
           7.2533933878567459E-05   -7.4819315188728093E-05   -3.7629488888636471E-05
          -3.9322988575948709E-05    7.7713369530832277E-05   -4.9484602597839896E-05
           1.3057379766200918E-04    3.2998964297609961E-05    2.3389866014239050E-04
          -2.3509358637253627E-04   -1.3034774433760726E-04   -7.8879784829637953E-05
           2.2663974882071268E-04    3.8940882892239368E-06   -1.0672780451659355E-04
          -4.8905242918543862E-04   -8.8291554418814256E-05    4.1273297091893624E-05
          -2.3517177964214222E-04    3.0047635156381373E-05   -4.3285500883749987E-05
           2.3871849795384926E-04    1.6484647710452051E-04   -6.5701800576496177E-06
           2.1756702614898262E-06   -3.6685136594081749E-04    1.9083731501140616E-05
           1.5263277743765593E-04   -4.5406823835598419E-05   -4.7850620499497762E-05
          -2.4366711287613957E-04   -1.5793106100427397E-04    1.4697438563695205E-04
          -4.6380813505588637E-05    6.7005925797838199E-05   -1.4094312562543189E-04
           7.0386578672911984E-05    1.4790076784447376E-04    2.3286433602908547E-04
          -1.0544099119074362E-04    9.0971533133654784E-05    1.4244526951995678E-04
           3.9446322296755176E-04    6.7569172820588396E-05    1.1084316707407323E-04
          -7.7542156658197290E-05   -1.2551164720863152E-04   -1.9898819772637400E-04
           4.0834979217799043E-04    1.4764967627226770E-04    2.0705283491203507E-05
          -2.3057413576377088E-04   -1.2071393189589968E-04    1.1534324681653399E-04
          -2.2445140569509947E-04    3.2516286912486050E-04   -1.1004648482204768E-04
          -2.5249548995204692E-05    3.9104765548140993E-04    1.6361307451849560E-04
           2.2783467790010323E-05   -6.3114575277100434E-06    4.4689206318217114E-05
          -2.2749371826820771E-04   -7.0059699222181333E-06    6.3814403816887815E-05
          -7.5853164186528787E-05    8.7002441536781155E-05   -2.6945242200122877E-04
          -1.5174645296459177E-04   -1.6488710611764205E-04   -8.8599937396252672E-05
           8.3186202725689174E-06   -5.3104079059565852E-05   -7.5058533111083516E-05
           6.6500165507125979E-05    1.1873974519987397E-04   -1.6876577035675346E-04
          -3.6861210826446536E-04   -4.4905138593347431E-04   -7.2135058686537820E-05
          -1.2506938727171549E-04   -2.1650974605768068E-04    1.4245782354646941E-05
           1.5305853252986599E-04    7.8061367150563055E-05   -2.6041680607662555E-04
           1.1603170847623082E-04    1.3154101218214041E-04    1.9734889967026009E-05
          -2.7566410321447751E-05    4.9188391052719344E-05   -8.2861079404220752E-05
           1.7539773471462295E-04   -1.0194492078722525E-04   -1.5958541294956288E-05
           9.1160346892137856E-06   -1.7067102899874297E-04   -1.2704807040628030E-04
           2.0533708583828940E-04   -1.8520865666382723E-04    1.5572511017023497E-04
          -9.5059251454187265E-05    3.8900119903877682E-04    6.8133144196956750E-05
          -3.3406382324339036E-05    1.1411499707506311E-04    4.8377796709634397E-05
          -3.2166174218073895E-04   -6.7429210558577011E-05   -3.3439454031872440E-04
          -1.0567197804943631E-04   -1.8604152118351083E-04   -4.1177966912293514E-05
           3.0232555384660485E-04    4.4482756404942606E-08   -4.0954738013985754E-05
           3.4127138907826562E-04   -7.5686724692339063E-05    3.1369710523369859E-04
           4.8645208040029056E-06    9.5406277062382722E-05    4.0430203566414218E-05
          -7.3487234920213270E-05   -1.1019701265436202E-04   -1.6988167751730702E-04
          -9.5116294348594952E-05    1.5929238980020788E-04    1.0050636564762702E-04
           2.9577452115319873E-04   -2.0295534619228740E-04   -3.8717435443254674E-06
           3.3427097552810939E-05    2.9886113904260110E-05    2.3028601056567972E-05
           2.1249634917581135E-04   -1.8765388695114496E-04   -7.1382764687492962E-05
          -4.5134200613931120E-04   -3.6461998036808839E-05   -6.2014780459307547E-04
           9.6717121607330797E-04   -4.1496771604931508E-04   -1.4275705698018728E-03
           7.4612048411094433E-04    7.4926340799305331E-04   -2.8983563266543295E-05
           1.1950822730803410E-03   -2.4938163772286780E-04   -4.6955699926687621E-04
           3.3437263773413903E-04   -4.4066319731090334E-04   -4.5337897815332206E-04
           1.1011431662378800E-03    2.9139917326867308E-04   -1.2198962736642367E-03
           2.2385249970981348E-04    1.5948609342855953E-03   -3.7881054219864903E-04
           1.0079326383134097E-03   -6.8228660473734120E-04    2.6177285017245009E-04
          -7.1676772167536572E-05    2.5746464897009226E-05   -1.3520750351210729E-04
          -6.5359743159936379E-04   -1.1729133117821071E-04    1.7260386305528955E-04
          -6.3946645532283000E-04   -9.4886603544746607E-04   -2.5714998908971820E-04
          -3.9131100882943998E-04   -2.4416892645083538E-04   -5.0810873229275980E-04
           2.8831271511784660E-04   -2.0448067102032835E-03   -7.4372526401876918E-04
           3.8720872054083956E-04   -1.5659038684784205E-03   -8.1922109566788667E-04
           6.6131192184943049E-04   -2.0572267226875009E-04   -4.7008211594681197E-04
          -4.8840437587798556E-05   -1.4279618006719876E-03    8.4954144524107154E-04
          -5.1075273925412813E-04    9.0001937672988617E-04   -4.3720385365119562E-04
           2.7825781516934290E-04    1.1169167719217427E-04   -5.6938528401944690E-04
          -1.5084824930673025E-03    7.3769946901907550E-04   -6.1844046612986303E-06
           2.4538874923246093E-04    9.7494646952670785E-04   -4.8314180616803367E-04
          -8.5480359467182205E-05    5.9478416171855272E-04   -4.9304901636027728E-05
          -6.8266994505203967E-04   -5.5575566575181621E-04    7.1333097089186569E-04
           4.9456847775801514E-05    6.5025459334938315E-04   -7.7972174813186314E-04
           7.9382955317358985E-05   -7.8198264146246102E-04    7.2595378948185434E-04
           2.5852131569911773E-04    7.5469391167288494E-05   -5.8533339039023365E-04
           3.2409077359433900E-04   -2.7317136237482687E-04    2.5330976797292414E-04
          -1.0540506164922838E-03    5.0562455740642493E-04    7.1097587663860381E-04
           8.0546734662715496E-04   -1.4475933298947137E-04   -9.1148946840203496E-04
          -9.4447429201019911E-05   -1.7442565229222300E-04   -6.6682127829359493E-04
          -5.9604062243371898E-04    2.1026825326371039E-03   -1.6362959701464260E-04
          -5.9396099202964152E-04   -1.8326838202920216E-04   -3.0896384759847057E-04
          -1.1277145425824991E-04   -1.9670835968898441E-04    5.4210691563334518E-04
           3.7332633879251335E-04   -2.2247370329620965E-04   -3.6283756805247802E-04
          -5.2077706489372932E-04    8.9077612568236471E-04   -5.6184164068619560E-04
           6.7815751256103895E-04    1.3444514439580588E-04   -5.4935154403403506E-04
          -5.1310271399183124E-05   -7.8829554703731882E-04    5.3276039723904880E-04
          -8.5130409007077684E-05   -4.3984632745339283E-04   -1.5059866460116812E-03
           1.9680255627937547E-04    7.0602917217611326E-04    7.9813152563541236E-04
          -3.1120886791951148E-04    7.4703220924966177E-04    4.9930464952572368E-04
          -7.7046114692092926E-04    8.8060124139166941E-04    4.4946245364945012E-04
           4.7827412322432213E-04    2.0967831427720046E-04    9.9045583191469892E-04
           2.7338768314604347E-04   -1.2911505093071305E-05    2.0308294566670922E-03
           2.2268144216481289E-04    4.5671096290213827E-04    2.0294438626998028E-03
          -1.3963762680966875E-04    6.4107067981807671E-04    2.3590679284501951E-04
           1.0627265607027062E-03   -8.1441755638380481E-04    2.5570925291738285E-04
           5.5752905183982938E-04   -2.4904265434211737E-04    1.0092943120096317E-03
           8.2308722580148343E-04    4.6317561234494290E-04    1.0881531478784843E-03
           1.0550329244357430E-03    1.4718671462265892E-03   -1.9479088051807918E-04
          -5.9234975152920252E-04    1.4349114685470465E-03   -1.0527038082664324E-03
           1.6932613075247430E-04   -2.7170861877306480E-04   -1.8216829138181903E-04
          -3.9770868216052770E-04    1.1372230153316033E-03    1.5121550510439902E-04
          -2.1017769409106642E-04    2.5917097130887987E-04    1.2964206860152747E-03
           5.7060427920261182E-04    4.3671541264687382E-04   -1.4660693893712222E-04
           2.7365554735969900E-04   -1.1051173482042795E-04   -2.7041350586332671E-04
          -1.5490310923866122E-03   -4.8289839359730833E-04    1.0665735172139285E-03
           1.1224150504506253E-04    6.1359106771711656E-04   -2.4338314528408122E-04
          -8.4574512527806967E-04    2.7257287514994883E-04    4.4909119714640140E-04
          -9.0308194375518557E-04    4.6440059128195744E-04   -2.6541928311987751E-04
          -1.1903653561449504E-03    3.2337940588794039E-05   -5.5038916001697308E-05
           2.6854808173569337E-04   -1.1020380157759789E-03    6.7777744830969325E-04
           3.1913849413369095E-04    1.0174460215358573E-03   -3.0838829165886084E-04
          -4.2287091606263243E-04    4.3945863776597631E-04   -8.2903290422565664E-04
           4.5796851366986619E-04   -7.2851844241635230E-04   -1.9906514358326288E-04
          -2.5421516948694148E-04   -2.9861670766412096E-04    4.0880986581200808E-04
          -1.7312719899279758E-04    6.5870510360919424E-04    1.2668576802584289E-03
           2.5583564444309052E-04   -7.9678978580483402E-07    1.1677936184267376E-03
          -1.5491526833158117E-05    1.3159291771849021E-03    1.0400222974310906E-03
           8.9575808404947774E-04   -3.3563207831909507E-04    5.8434047540696340E-04
           1.0485189083682886E-03    1.4354236887610978E-04   -1.3233266899011981E-03
          -7.1283458299930603E-04    3.7647186490177197E-04   -7.8163815422856251E-04
          -5.0191624992849704E-05    2.0915573575999256E-05   -3.3662881984310774E-04