 # Version information for this restart file 
 # current date 2023-07-27 11:10:51.988
 # current working dir /mnt/lustre/indy2lfs/work/tc047/tc047/mrnuff-cirrus/cp2k/nuff-benchmarks/H2O-64-1node
 # Program compiled at                              Thu Jun 30 12:29:55 BST 2022
 # Program compiled on                                             cirrus-login3
 # Program compiled for                                             Cirrus-intel
 # Source code revision number                                       git:e635599
 &GLOBAL
   PRINT_LEVEL  LOW
   PROJECT_NAME H2O-64
   RUN_TYPE  MD
 &END GLOBAL
 &MOTION
   &MD
     ENSEMBLE  NVE
     STEPS  10
     TIMESTEP     4.9999999999999994E-01
     STEP_START_VAL  10
     TIME_START_VAL     4.9999999999999982E+00
     ECONS_START_VAL    -1.1007588181103963E+03
     TEMPERATURE     3.0000000000000000E+02
     &AVERAGES  T
       &RESTART_AVERAGES
         ITIMES_START  1
         AVECPU     1.8454372926568613E+01
         AVEHUGONIOT     0.0000000000000000E+00
         AVETEMP_BARO     0.0000000000000000E+00
         AVEPOT    -1.1010668160173036E+03
         AVEKIN     3.0070034549322699E-01
         AVETEMP     3.3142598855992094E+02
         AVEKIN_QM     0.0000000000000000E+00
         AVETEMP_QM     0.0000000000000000E+00
         AVEVOL     1.2909542132085598E+04
         AVECELL_A     2.3458682268415796E+01
         AVECELL_B     2.3458682268415796E+01
         AVECELL_C     2.3458682268415796E+01
         AVEALPHA     9.0000000000000000E+01
         AVEBETA     9.0000000000000000E+01
         AVEGAMMA     9.0000000000000000E+01
         AVE_ECONS    -1.0896372276940001E+01
         AVE_PRESS     0.0000000000000000E+00
         AVE_PXX     0.0000000000000000E+00
       &END RESTART_AVERAGES
     &END AVERAGES
   &END MD
 &END MOTION
 &FORCE_EVAL
   METHOD  QS
   &DFT
     BASIS_SET_FILE_NAME GTH_BASIS_SETS
     POTENTIAL_FILE_NAME POTENTIAL
     &SCF
       SCF_GUESS  ATOMIC
       &OT  T
         MINIMIZER  DIIS
       &END OT
       &PRINT
         &RESTART  OFF
         &END RESTART
       &END PRINT
     &END SCF
     &QS
       EPS_DEFAULT     9.9999999999999998E-13
       EXTRAPOLATION  PS
       EXTRAPOLATION_ORDER  3
     &END QS
     &MGRID
       CUTOFF     2.8000000000000000E+02
       REL_CUTOFF     3.0000000000000000E+01
     &END MGRID
     &XC
       DENSITY_CUTOFF     1.0000000000000000E-10
       GRADIENT_CUTOFF     1.0000000000000000E-10
       TAU_CUTOFF     1.0000000000000000E-10
       &XC_FUNCTIONAL  NO_SHORTCUT
         &PADE  T
         &END PADE
       &END XC_FUNCTIONAL
     &END XC
   &END DFT
   &SUBSYS
     &CELL
       A     1.2413800000000002E+01    0.0000000000000000E+00    0.0000000000000000E+00
       B     0.0000000000000000E+00    1.2413800000000002E+01    0.0000000000000000E+00
       C     0.0000000000000000E+00    0.0000000000000000E+00    1.2413800000000002E+01
       MULTIPLE_UNIT_CELL  1 1 1
     &END CELL
     &COORD
O    1.2265692089483849E+01    1.3554390129941800E+00    1.0875425741210391E+01
O    6.4523125712782328E+00    3.7059030017228962E+00    8.6472703373292159E+00
O    7.7679434805458247E-02    2.1684363409616410E+00    8.2608499727948104E+00
O    1.2086328917682344E+01    2.6383236471456257E+00    2.1708319631148036E+00
O    1.2290563434792464E+01    4.1705987030844183E+00    1.2102197401500753E+01
O    7.2035546534508184E+00    9.4146440982936086E-01    4.7596753308529323E+00
O    8.3332259924711032E+00    7.2077559238208506E+00    4.6827252174468619E+00
O    1.2331820354972876E+01    1.1521085584601154E+01    8.0815267568455340E+00
O    3.2742305248728791E+00    4.4591006237003095E+00    9.1745323461747201E+00
O    2.8601657947011487E+00    3.7871321994318587E+00    6.5410904120533546E+00
O    1.3797135980521855E+00    6.3917883108529594E+00    5.6509499049338929E-01
O    1.8717778176468440E+00    8.6859327223318665E+00    2.0908475002935081E+00
O    3.7724126920716605E+00    1.2107291686118609E+01    8.6205990989002608E+00
O    6.4253612010427501E+00    3.6667844669334748E+00    2.7875787966085670E+00
O    1.9996801569167157E+00    1.8525818618605447E+00    4.8671305057775829E+00
O    8.2870264289442570E+00    2.4221945186201683E+00    6.9417301194041974E+00
O    5.7524965525742715E+00    3.3354063225406896E+00    1.2486444073906789E+01
O    1.1313041873263915E+01    5.6568394091370662E+00    2.2481538681310056E+00
O    4.2889086332743416E+00    2.1146774663677319E+00    1.0586400462686642E+01
O    5.3988008779579637E+00    3.3584215761666441E+00    5.4859980676066504E+00
O    6.5093803283316127E+00    1.1870555907452776E+01    7.1448610258287371E-01
O    3.2525927590516779E+00    2.3434818290721462E+00    2.4132514479858567E+00
O    8.0086796499283768E+00    6.3565335203086786E+00    7.4977752039613481E+00
O    5.9288585788258121E+00    6.5082801666043668E+00    1.2195796701642470E+01
O    1.0610385294795584E+01    1.1861264429738622E+01    1.2200574174939970E+01
O    9.3403690756568807E+00    3.6890996107164096E+00    3.5273423653475304E+00
O    1.1111278086578031E+00    5.7890355206451032E+00    6.6473009501981410E+00
O    8.0194995343336846E+00    3.3269739508473015E+00    1.0869758841489812E+01
O    1.2376084676796198E+01    9.6748049821028985E+00    1.1772442429127405E+01
O    4.2098962719503756E+00    7.0914037241392194E+00    8.1403049780540755E+00
O    3.7839656891276205E+00    8.2290488153629457E+00    1.1585038748792476E+01
O    1.1076296436002716E+01    4.5429033328726653E+00    7.8327522122957198E+00
O    1.0435269965490587E+01    8.4217711221835359E+00    1.0328413587523173E+00
O    1.9828015281271820E+00    6.4005825276163861E+00    1.0353823655978390E+01
O    4.7041682767468727E+00    5.6227133611206337E-01    5.6097237226912036E+00
O    8.7178718108893971E+00    1.2242115811187226E+01    8.0976567639231565E+00
O    2.6327341025095037E+00    1.0520521873272873E+01    8.2905623926725763E-02
O    7.2399931187465327E+00    1.0511642196931726E+01    4.2432664330031464E+00
O    2.2807064781619464E+00    2.7612056427344833E-01    1.0807250569989252E+01
O    8.8632061138828782E+00    9.4642072500211394E-01    1.3400856795970126E+00
O    1.9443088048744119E+00    8.0893935868695479E+00    7.5355059867712306E+00
O    9.6598248299588469E+00    8.0355046451626393E+00    9.8565400345209433E+00
O    1.0903669851584372E+01    8.3307153998975938E+00    6.4773146916028370E+00
O    3.5124567442237802E+00    4.8693650210822410E+00    1.5451764009708000E+00
O    7.9775830453592116E+00    8.6026723333305739E+00    1.2050849513770203E+01
O    8.3694035479504585E+00    1.0019371052442994E+01    6.6836141760228776E+00
O    5.6546743218577245E+00    6.0810664230943914E+00    5.5283846573827686E+00
O    1.1742547847645353E+01    1.6241840639033853E+00    5.0859575162073050E+00
O    9.7585719615142885E+00    9.8110347715519275E+00    3.5364867774940882E+00
O    3.9627876574400531E+00    1.0548914651573686E+01    4.6848634346389675E+00
O    9.0110847254971305E-01    6.3699180308686438E+00    4.0614677068443683E+00
O    6.8825857356122322E+00    6.4084220847945570E+00    2.5046902581440662E+00
O    3.8180799995398438E+00    6.6391276583279977E+00    3.7786506828597903E+00
O    6.5639457974901587E+00    8.3081696931558167E+00    8.8142644496195590E+00
O    9.7792965800926925E+00    1.3440562766331490E-01    3.8518038249085209E+00
O    4.1040770115658418E+00    1.1645978558721355E+01    2.2167390496173547E+00
O    5.3225394392113046E+00    8.7370879819812668E+00    2.7520568939069028E+00
O    1.0008064086737118E+01    5.3735087324373456E+00    5.3757728940149354E+00
O    1.2260297782908804E+01    8.6464340629358585E+00    3.9709777917871762E+00
O    2.3431345497116793E+00    1.0747243885368784E+01    6.8128217267251596E+00
O    7.0016612916653900E+00    6.6240597665991197E-01    1.0534341561687869E+01
O    5.1725047982212997E+00    1.0218495319125164E+01    1.0357205957141362E+01
O    1.1186316801594458E+01    5.8851524495734990E+00    1.0299193203865864E+01
O    1.2277001782589766E+01    8.9569716794259726E+00    9.0707884188586068E+00
H    1.2357840653884363E+01    2.3335995753224377E+00    1.1187202568866617E+01
H    1.1946181003855603E+01    1.5338243304141639E+00    9.8820686313882291E+00
H    5.5871540557000596E+00    3.4492983737425651E+00    9.0442905792547599E+00
H    6.8930493554896852E+00    3.0239782285792591E+00    7.9852283560216355E+00
H   -1.4374297116867266E-01    1.5098214846065623E+00    7.5263531243319690E+00
H   -3.8865416711525147E-01    3.0530974755007678E+00    7.9298823362646216E+00
H    1.2176354233152878E+01    2.9746344065099213E+00    1.1924463434421224E+00
H    1.2991627169715427E+01    2.9143170210548037E+00    2.5155346727348835E+00
H    1.1517585159652274E+01    4.3255122446516818E+00    1.1434691026735827E+01
H    1.2784953658522410E+01    5.0635466714145085E+00    1.2040055000819775E+01
H    6.9671401310526822E+00    1.7387343976977434E+00    4.1849967664905661E+00
H    6.2296009063343289E+00    6.8946782722656808E-01    5.1579113656951794E+00
H    7.7273594948731787E+00    7.2216808380994815E+00    5.4888761780282396E+00
H    9.1691701765469080E+00    6.6296086344986724E+00    4.9460727574878582E+00
H    1.2846883768257312E+01    1.1781070688349313E+01    8.9005192602392036E+00
H    1.1983330930254549E+01    1.0563456761596161E+01    8.3168613221533843E+00
H    3.5249173108185414E+00    3.8402074967249669E+00    9.9510006399904629E+00
H    2.4297337650181947E+00    4.9330989925197830E+00    9.5245628999132741E+00
H    2.1731627523309966E+00    4.5583640086452242E+00    6.3013579985289807E+00
H    2.8563500932210544E+00    3.8576048156114466E+00    7.5841394106042408E+00
H    1.1402120515024543E+00    7.1967347480529824E+00    1.1594244541639338E+00
H    2.2451038169252704E+00    6.0044688738684204E+00    1.0028737587404877E+00
H    2.8159635337991893E+00    8.9701748198801976E+00    2.2995199891603160E+00
H    1.3289544665061197E+00    8.9939926467778477E+00    2.8983257079436542E+00
H    4.4550218369061092E+00    1.1540339425003751E+01    9.1644203320319786E+00
H    3.0505860859906742E+00    1.2474023132571032E+01    9.2862357274700482E+00
H    5.8591510063951278E+00    3.4580809397755830E+00    3.6616773633305391E+00
H    5.8328342793245014E+00    3.4003555439706261E+00    1.9823495664217148E+00
H    9.5573469725970883E-01    1.6451477306436231E+00    4.8407733836338425E+00
H    2.2282991647304384E+00    2.4813299829886835E+00    5.6872650230019346E+00
H    8.4431290012359401E+00    1.6050270153559922E+00    7.5442513472487320E+00
H    8.0660702671730462E+00    2.0137128293831790E+00    6.0338191030231965E+00
H    5.2179579256214232E+00    2.8944435585798729E+00    1.1676379626020745E+01
H    6.6808372388707662E+00    3.4137338960721810E+00    1.1974227321955174E+01
H    1.0787628803146232E+01    6.5181395670633533E+00    2.0987991922631930E+00
H    1.1679773573101238E+01    5.3602522151475300E+00    1.3423877172510248E+00
H    3.4353203684196898E+00    1.5422281194347172E+00    1.0899348788956589E+01
H    4.8360131199372365E+00    1.4266306188287956E+00    1.0089887937303841E+01
H    4.3860802582003355E+00    3.3639520802573517E+00    5.6883523933772784E+00
H    5.6851424648155628E+00    4.3694414775811996E+00    5.5473743673649407E+00
H    6.2905172776227261E+00    1.1824099733747966E+01    1.7188529435634015E+00
H    5.6254822935022464E+00    1.2118652077614499E+01    3.2827489265244003E-01
H    3.5448338646080795E+00    1.3905272139792333E+00    2.1815170599108220E+00
H    2.6082617908450043E+00    2.2011793681998464E+00    3.2448585926831464E+00
H    7.1214310944128307E+00    5.8746986475790877E+00    7.5240902705252095E+00
H    8.6555160452208106E+00    5.7349833608752760E+00    7.0296645633628403E+00
H    6.0004465275648213E+00    5.6511979030143058E+00    1.1673025686980100E+01
H    6.2576534574141114E+00    6.3249880564331145E+00    1.3168261180251934E+01
H    1.1110393485508810E+01    1.2636559250997671E+01    1.1695509562619442E+01
H    1.0264574453193259E+01    1.2297166054267116E+01    1.3044673119309833E+01
H    9.9063257583769442E+00    4.0523254539289191E+00    2.7328096710820655E+00
H    8.5320976562311390E+00    3.4662435851512199E+00    2.9418258347988782E+00
H    1.4549325922375216E+00    6.6684406032653101E+00    7.1063381287423164E+00
H    1.0013233336710849E+00    6.1758231958591887E+00    5.6553319488924814E+00
H    7.9834584102603277E+00    3.6965662970358193E+00    9.9295362401113074E+00
H    8.0702893407903549E+00    2.3148727995365057E+00    1.0750118168091030E+01
H    1.1741851247337987E+01    1.0457041172522514E+01    1.2099135806994536E+01
H    1.2145140467199530E+01    8.9346530857760520E+00    1.2412210742862982E+01
H    3.3373535314763383E+00    7.6121200308664765E+00    7.8531045761947267E+00
H    3.8438071109320551E+00    6.2417161568830837E+00    8.6114175129816815E+00
H    3.1132077807630951E+00    7.6196920981177181E+00    1.1070308623801774E+01
H    4.4752997918975996E+00    7.6309327249730705E+00    1.2076616644959724E+01
H    1.1595109347939191E+01    4.9846383472196871E+00    7.0588447442733786E+00
H    1.0300198428129598E+01    4.1359917521737533E+00    7.3179795841152258E+00
H    1.0066803629045170E+01    8.9449101926879671E+00    1.8648409458421089E+00
H    9.5721275817983038E+00    8.2654871620117643E+00    4.9820470823337160E-01
H    1.3188214514391852E+00    6.6901027276301130E+00    9.6503048603164228E+00
H    1.4021624816975180E+00    6.4512365186884990E+00    1.1227722789148007E+01
H    4.1225373888739814E+00    1.3301382656579590E+00    5.2661059713497957E+00
H    4.6863100279910181E+00    6.4323888153982289E-01    6.6181558656211967E+00
H    9.4703533710559284E+00    1.2334177792059046E+01    8.7409520154268350E+00
H    8.8486737260985056E+00    1.1353175343935602E+01    7.5414016813720872E+00
H    1.7346635260616687E+00    1.0023247752456127E+01    1.4531246290859329E-01
H    3.3374323737185754E+00    9.8445600332825212E+00   -2.3573946363536361E-01
H    7.0505799823409570E+00    1.1506005604268214E+01    4.1255571139600029E+00
H    6.4716019298300829E+00    9.9354966266938618E+00    3.7910911532776379E+00
H    1.3268589592361082E+00    5.8377393429950397E-01    1.1128929736799615E+01
H    2.5223619020799632E+00   -5.4513600115500815E-01    1.1460522258349666E+01
H    8.7695024945573969E+00    1.8730405160140009E+00    9.9029984538949145E-01
H    8.0908940305258295E+00    3.3984351975156757E-01    9.9164118000302082E-01
H    1.1203607709244419E+00    8.3716512006962738E+00    8.1792323344824727E+00
H    2.0883187077765757E+00    8.9941496096236513E+00    7.0138877035394875E+00
H    8.9092455661169048E+00    7.7938840102078251E+00    9.2222118549480765E+00
H    9.0650442925882668E+00    8.4492400512121399E+00    1.0614283870982181E+01
H    1.0125293357175172E+01    7.6972294325267043E+00    6.4507709233862442E+00
H    1.0499855152538487E+01    9.1992705817144884E+00    6.1555311709816891E+00
H    3.4971231604226114E+00    3.9586904012079471E+00    2.1122844778206118E+00
H    4.0584146620666175E+00    4.5845739999390256E+00    7.4299547661150056E-01
H    7.3547300979710455E+00    9.3907717765817793E+00    1.2034662471096368E+01
H    7.3341917810683928E+00    7.7711469163738567E+00    1.2054219542751586E+01
H    7.8271815569080330E+00    1.0161811172290040E+01    5.7814619639483817E+00
H    7.7120113817887521E+00    9.5092512996362117E+00    7.2843726304680834E+00
H    5.2899463871884445E+00    6.4889429596081341E+00    6.3929757321025296E+00
H    4.8678252868839289E+00    6.3175211180858595E+00    4.8313586361437233E+00
H    1.1521862541305735E+01    2.1923283626799033E+00    4.2496614328177529E+00
H    1.1222791846958016E+01    7.8414795598384124E-01    4.7829538343863378E+00
H    8.8119942350214711E+00    9.6778779613701289E+00    3.9666686831539009E+00
H    9.9342844970877895E+00    1.0814156988790840E+01    3.7816372858602865E+00
H    3.1082289528956251E+00    1.0546326407174472E+01    5.2868803913857016E+00
H    4.3132584907105178E+00    1.1455620653057824E+01    5.0610780320729489E+00
H    4.2220406784294595E-01    7.3045102192444622E+00    3.8013135649937309E+00
H    2.9772343931236689E-01    5.7724401932042273E+00    3.4526995513593830E+00
H    7.5860591209727559E+00    6.5678847601546098E+00    3.2915836809344290E+00
H    6.6758385347284221E+00    5.3831754309178654E+00    2.5200133494028583E+00
H    3.8532534172198987E+00    6.3060046348704466E+00    2.8123783749705469E+00
H    2.7953246440734225E+00    6.5485847389783212E+00    3.9537741358607512E+00
H    5.5553176437611071E+00    8.0120599991627888E+00    8.6583941104723685E+00
H    6.9993930795500745E+00    7.4780238970674020E+00    8.4104344163932598E+00
H    9.5571588990616387E+00    7.3280446145774480E-01    3.0174818797269065E+00
H    8.9237164310790931E+00    1.3437510586173412E-01    4.4076447871974462E+00
H    3.8482457315675993E+00    1.1174438455170897E+01    1.3441470566656233E+00
H    3.9626056228576583E+00    1.0964278466897744E+01    3.0102551897947314E+00
H    5.9449661422369795E+00    7.8891857853089444E+00    2.7995741535955645E+00
H    4.7652120121299424E+00    8.7229381074889325E+00    3.5906717261654797E+00
H    1.0905815782848528E+01    5.5302201800699544E+00    4.9342869455826222E+00
H    9.5033245323306783E+00    4.6732708376731766E+00    4.7171193166482777E+00
H    1.1491942104116729E+01    9.0018887406789521E+00    3.3983649908367846E+00
H    1.1959903629039824E+01    8.7851547644295263E+00    4.9401026898661016E+00
H    2.9404439844276227E+00    1.1333326721638459E+01    7.4881123877730928E+00
H    1.3993518978819044E+00    1.1120275827042923E+01    6.8063456551225388E+00
H    7.2181951384376628E+00    1.2809608485311977E-01    9.7032371258682915E+00
H    7.1648660378587081E+00    1.0772078745134568E-01    1.1367500988399765E+01
H    4.8113412051056335E+00    9.3237474535607170E+00    1.0837702423612082E+01
H    6.0816481698036764E+00    9.8060697913094792E+00    1.0186927365163763E+01
H    1.0565212262638669E+01    6.7306908548558351E+00    1.0314443980527933E+01
H    1.1239043366237135E+01    5.5938377372086725E+00    9.3143651163972425E+00
H    1.2188456954751823E+01    8.9927460848973322E+00    1.0127821223536824E+01
H    1.1415764242458105E+01    8.6329965781018920E+00    8.6365688433575620E+00
     &END COORD
     &VELOCITY
           2.4353373553021016E-04   -1.2006097602674078E-04    8.6380096426596318E-05
           5.1311970178138609E-05   -1.2708266203077179E-06   -1.4048482608449956E-05
          -1.3298767757320088E-04   -8.3910828185574090E-05   -1.7227772179821661E-04
           3.2311111387346914E-04   -2.8974228281228385E-04    2.2815855771184251E-04
           3.6807112799757281E-04   -1.6540691872146985E-04    8.2168021722714979E-05
           8.6843810077987188E-05   -1.6733145785046425E-04    2.3233906169642748E-04
          -1.9144732815436279E-04    3.6490306372981690E-05    1.7692428816540345E-04
          -2.7339212137213084E-04   -2.0181330331641271E-06   -2.5185283188651090E-04
          -2.9114797156519002E-04    1.4202524657043472E-04   -9.4207613533870939E-05
           4.9604684382635851E-05    1.9764986075563581E-04   -3.9675655900216215E-05
          -1.0338266296064784E-04    2.5533554886936579E-04   -1.7753567723131713E-04
           1.2393271803165317E-04   -5.1522817964828011E-05    2.4869105054712345E-04
           3.7171385612765732E-05    1.3912087635290312E-04   -2.6001104941362785E-04
          -9.0584380439829378E-05   -5.4256969624715856E-05    1.3571849163608398E-04
          -1.3532069033953618E-05    2.9312535024535402E-04   -1.1035216194530270E-04
           3.4365663856335157E-04    1.2592891247575685E-04    1.2984947778567623E-04
           3.1061310686890710E-05   -2.1491061234706142E-04    1.3642911352258793E-04
          -1.1197980598940526E-04    8.8708519145141716E-05    8.1551359030776415E-05
           7.2553977148979455E-05   -7.4882564047950808E-05   -3.7593240429659462E-05
          -3.9311008768767983E-05    7.7794970774838318E-05   -4.9503853884341079E-05
           1.3050850736337656E-04    3.2997372842397306E-05    2.3384938882098699E-04
          -2.3506710107547822E-04   -1.3038351983352294E-04   -7.8872779761924856E-05
           2.2656471395862015E-04    3.8984618361044884E-06   -1.0674489559551061E-04
          -4.8910812396590301E-04   -8.8250996371697907E-05    4.1168871693943132E-05
          -2.3516505104500583E-04    3.0141522876162623E-05   -4.3307021528268897E-05
           2.3874077440422890E-04    1.6479626533065918E-04   -6.5961174408768231E-06
           2.1570400440081466E-06   -3.6687604474265210E-04    1.9056449025119450E-05
           1.5263290746012943E-04   -4.5423683353338910E-05   -4.7828240981076514E-05
          -2.4361660474275828E-04   -1.5799538490286587E-04    1.4701044899567673E-04
          -4.6332302278493553E-05    6.6958418741140603E-05   -1.4093723621134345E-04
           7.0402526348006258E-05    1.4787938508769457E-04    2.3294646136631187E-04
          -1.0541845847309675E-04    9.0959878374416125E-05    1.4239486316492219E-04
           3.9447066267609017E-04    6.7697585284160573E-05    1.1078543440030551E-04
          -7.7642050398625919E-05   -1.2536442818197776E-04   -1.9896428320007435E-04
           4.0834731830741063E-04    1.4767279244983980E-04    2.0697580191185462E-05
          -2.3059415804822472E-04   -1.2069261926563676E-04    1.1528847271936162E-04
          -2.2453224222908073E-04    3.2508315209926471E-04   -1.1011175869277012E-04
          -2.5223464560499094E-05    3.9102949516949236E-04    1.6353834116322304E-04
           2.2717843314740627E-05   -6.2765751648090328E-06    4.4671040028281701E-05
          -2.2749659830734696E-04   -6.9576305505290265E-06    6.3788388337537074E-05
          -7.5841302718614276E-05    8.7087799011519466E-05   -2.6939094015327846E-04
          -1.5166914072049025E-04   -1.6482446184608418E-04   -8.8619423403849104E-05
           8.3255811679062130E-06   -5.3065384631624769E-05   -7.5044278375934834E-05
           6.6403553283509944E-05    1.1865592146612955E-04   -1.6876922794172901E-04
          -3.6854176965735814E-04   -4.4916679521159582E-04   -7.2212204725774479E-05
          -1.2514834926128854E-04   -2.1658705550752302E-04    1.4279407557544342E-05
           1.5301292386703857E-04    7.8212466734207207E-05   -2.6042789655637073E-04
           1.1597437780915451E-04    1.3153166326518157E-04    1.9714489345448837E-05
          -2.7586288469451976E-05    4.9135802993622811E-05   -8.2847135186612421E-05
           1.7533037836994989E-04   -1.0200057779044846E-04   -1.5955910871261635E-05
           9.1305293487479566E-06   -1.7063363096459937E-04   -1.2704533408441020E-04
           2.0532414020158523E-04   -1.8523108330950963E-04    1.5576953260034877E-04
          -9.5082342048893911E-05    3.8898283928694198E-04    6.8143354603112744E-05
          -3.3468517681635351E-05    1.1413973594084356E-04    4.8372670606372140E-05
          -3.2167308794029320E-04   -6.7373694363458353E-05   -3.3440505798244862E-04
          -1.0565699375472261E-04   -1.8612919959497138E-04   -4.1185047196497496E-05
           3.0227443464018392E-04   -1.9476821399050002E-08   -4.0898192669698955E-05
           3.4132859751166548E-04   -7.5666618758222845E-05    3.1369871723556516E-04
           4.8774504482673220E-06    9.5432986766495721E-05    4.0463993790934740E-05
          -7.3525642130500870E-05   -1.1023344657265280E-04   -1.6990266178516160E-04
          -9.5305467321159224E-05    1.5924492797662882E-04    1.0050784054834231E-04
           2.9577992716602058E-04   -2.0302338272487367E-04   -3.8000268550329366E-06
           3.3426751499830303E-05    2.9960856877116026E-05    2.2957098674381153E-05
           2.1247046209911893E-04   -1.8773508816446327E-04   -7.1323934924495618E-05
          -4.5158839413591650E-04   -3.6143060078288301E-05   -6.1976176341313970E-04
           9.6706711087500997E-04   -4.1494673938084525E-04   -1.4270244721988823E-03
           7.4657709738366841E-04    7.4979183341279112E-04   -2.9716006637064214E-05
           1.1944835029951946E-03   -2.4887952170096392E-04   -4.6965328168947285E-04
           3.3415678178138979E-04   -4.4057529885037561E-04   -4.5347033644231577E-04
           1.1012796130075780E-03    2.9083917954490215E-04   -1.2194190254951362E-03
           2.2415342341659217E-04    1.5937251548454685E-03   -3.7781211910803143E-04
           1.0073465758470852E-03   -6.8157982680723127E-04    2.6183752026086500E-04
          -6.9769183625012564E-05    2.4841597115813332E-05   -1.3349984298213356E-04
          -6.5395783736240309E-04   -1.1729839032705150E-04    1.7209949837966194E-04
          -6.3912725034383710E-04   -9.4833908163392084E-04   -2.5753189732572362E-04
          -3.9187509729499896E-04   -2.4417797176638529E-04   -5.0822500047446135E-04
           2.8904185307972971E-04   -2.0455475311424117E-03   -7.4488003304218364E-04
           3.8533435940331151E-04   -1.5649598638814602E-03   -8.1999331589856879E-04
           6.6163782210666093E-04   -2.0530137992595679E-04   -4.7022778535887801E-04
          -4.8571775213530162E-05   -1.4283455067329661E-03    8.4970777264545142E-04
          -5.1040502071570044E-04    9.0124041076134159E-04   -4.3717828656026757E-04
           2.7962496773194635E-04    1.1112791910820045E-04   -5.6980553869915435E-04
          -1.5080494509619557E-03    7.3672779723705194E-04   -5.7541529132387791E-06
           2.4475429620689378E-04    9.7437756642584146E-04   -4.8339679942786492E-04
          -8.5981680084680753E-05    5.9512037267675684E-04   -4.8949501756987245E-05
          -6.8266467564098102E-04   -5.5567223333908948E-04    7.1350489602108958E-04
           4.8033714497669775E-05    6.5011279413331553E-04   -7.7943973949832503E-04
           8.0491911098410637E-05   -7.8343749753227254E-04    7.2435736498169441E-04
           2.5839724570739882E-04    7.5578985190898588E-05   -5.8507007757821125E-04
           3.2468632064971856E-04   -2.7324024724288074E-04    2.5249479694676159E-04
          -1.0539062839299079E-03    5.0616494373651886E-04    7.1049452486597749E-04
           8.0541579377354209E-04   -1.4428395473324362E-04   -9.1111624630113835E-04
          -9.3901405522507360E-05   -1.7440336409979622E-04   -6.6695306718609888E-04
          -5.9667439631643708E-04    2.1020879938579672E-03   -1.6524975843006489E-04
          -5.9413689338770506E-04   -1.8314218673748606E-04   -3.0878549940439013E-04
          -1.1299139622924491E-04   -1.9706794255729877E-04    5.4164798335195642E-04
           3.7379192865504278E-04   -2.2187500989520367E-04   -3.6215118742497209E-04
          -5.2111287106351972E-04    8.9091209793541390E-04   -5.6207250900350563E-04
           6.7919292604559243E-04    1.3343181455767483E-04   -5.4958333089163665E-04
          -5.0955912346141698E-05   -7.8811310900460472E-04    5.3306738437264485E-04
          -8.4615276352421540E-05   -4.3969810880297534E-04   -1.5061331385081210E-03
           1.9621493944760367E-04    7.0658921103827928E-04    7.9834173948121004E-04
          -3.1086266729205448E-04    7.4710976671267895E-04    4.9983161016235039E-04
          -7.7088036734808386E-04    8.7923123998526307E-04    4.4906439902058323E-04
           4.7843808737710764E-04    2.0885304145795849E-04    9.9081078441259733E-04
           2.7383478090710551E-04   -1.2076470167118808E-05    2.0312636572798618E-03
           2.2238602224927524E-04    4.5732113705638253E-04    2.0297495633891252E-03
          -1.3983314820379186E-04    6.4110517559011785E-04    2.3541721875132004E-04
           1.0634351964140852E-03   -8.1406755449260854E-04    2.5592615928892609E-04
           5.5764666824074721E-04   -2.4944020395660830E-04    1.0095491375733592E-03
           8.2355304834810577E-04    4.6265598281681195E-04    1.0873683440545737E-03
           1.0554542732441404E-03    1.4711843503854211E-03   -1.9257994644442540E-04
          -5.9301436635400746E-04    1.4338243179624426E-03   -1.0518598720391662E-03
           1.7009542630690814E-04   -2.7229621441573023E-04   -1.8275874434110176E-04
          -3.9794180045161343E-04    1.1377334676029576E-03    1.5111872075290866E-04
          -2.1010779020462695E-04    2.5908254733719114E-04    1.2965840741035952E-03
           5.7014687399531807E-04    4.3663748723843273E-04   -1.4622705924439779E-04
           2.7451658005997817E-04   -1.1055104188584214E-04   -2.7011911347080223E-04
          -1.5488517943969633E-03   -4.8268639177184784E-04    1.0661735519971443E-03
           1.1223093817604523E-04    6.1336181167277661E-04   -2.4337739021540439E-04
          -8.4642821009325939E-04    2.7314900747826192E-04    4.4966165017847000E-04
          -9.0281864257960498E-04    4.6471968390106560E-04   -2.6632644265876256E-04
          -1.1909602595294904E-03    3.2546725740519543E-05   -5.5177771592077900E-05
           2.6878284876772929E-04   -1.1019214431249326E-03    6.7804196597913706E-04
           3.1926309388431582E-04    1.0177813137598566E-03   -3.0847823992635639E-04
          -4.2284471691508623E-04    4.3959034011483236E-04   -8.2960000476160322E-04
           4.5763012013343580E-04   -7.2873611065828918E-04   -1.9810871953930231E-04
          -2.5435809607711929E-04   -2.9857092395719456E-04    4.0812967128040796E-04
          -1.7369381694410285E-04    6.5701533356067067E-04    1.2674523034393386E-03
           2.5615963332240445E-04   -1.0911306555896937E-06    1.1679000472664194E-03
          -1.6308109856493186E-05    1.3149337651273108E-03    1.0407917756202472E-03
           8.9763869711347987E-04   -3.3652501425557991E-04    5.8254652401280448E-04
           1.0486726918940703E-03    1.4387708623349131E-04   -1.3227328924976971E-03
          -7.1280006662267253E-04    3.7576614693664388E-04   -7.8229807966999397E-04
          -4.9597517536191670E-05    2.0943390434824349E-05   -3.3577883355401044E-04