 # Version information for this restart file 
 # current date 2023-07-27 11:53:57.225
 # current working dir /mnt/lustre/indy2lfs/work/tc047/tc047/mrnuff-cirrus/cp2k/nuff-benchmarks/H2O-64-1node
 # Program compiled at                              Thu Jun 30 12:29:55 BST 2022
 # Program compiled on                                             cirrus-login3
 # Program compiled for                                             Cirrus-intel
 # Source code revision number                                       git:e635599
 &GLOBAL
   PRINT_LEVEL  LOW
   PROJECT_NAME H2O-64
   RUN_TYPE  MD
 &END GLOBAL
 &MOTION
   &MD
     ENSEMBLE  NVE
     STEPS  10
     TIMESTEP     4.9999999999999994E-01
     STEP_START_VAL  10
     TIME_START_VAL     4.9999999999999982E+00
     ECONS_START_VAL    -1.1007588181102731E+03
     TEMPERATURE     3.0000000000000000E+02
     &AVERAGES  T
       &RESTART_AVERAGES
         ITIMES_START  1
         AVECPU     6.9893975710030647E+00
         AVEHUGONIOT     0.0000000000000000E+00
         AVETEMP_BARO     0.0000000000000000E+00
         AVEPOT    -1.1010668160173022E+03
         AVEKIN     3.0070034549333025E-01
         AVETEMP     3.3142598856003468E+02
         AVEKIN_QM     0.0000000000000000E+00
         AVETEMP_QM     0.0000000000000000E+00
         AVEVOL     1.2909542132085598E+04
         AVECELL_A     2.3458682268415796E+01
         AVECELL_B     2.3458682268415796E+01
         AVECELL_C     2.3458682268415796E+01
         AVEALPHA     9.0000000000000000E+01
         AVEBETA     9.0000000000000000E+01
         AVEGAMMA     9.0000000000000000E+01
         AVE_ECONS    -1.0896372457745938E+01
         AVE_PRESS     0.0000000000000000E+00
         AVE_PXX     0.0000000000000000E+00
       &END RESTART_AVERAGES
     &END AVERAGES
   &END MD
 &END MOTION
 &FORCE_EVAL
   METHOD  QS
   &DFT
     BASIS_SET_FILE_NAME GTH_BASIS_SETS
     POTENTIAL_FILE_NAME POTENTIAL
     &SCF
       SCF_GUESS  ATOMIC
       &OT  T
         MINIMIZER  DIIS
       &END OT
       &PRINT
         &RESTART  OFF
         &END RESTART
       &END PRINT
     &END SCF
     &QS
       EPS_DEFAULT     9.9999999999999998E-13
       EXTRAPOLATION  PS
       EXTRAPOLATION_ORDER  3
     &END QS
     &MGRID
       CUTOFF     2.8000000000000000E+02
       REL_CUTOFF     3.0000000000000000E+01
     &END MGRID
     &XC
       DENSITY_CUTOFF     1.0000000000000000E-10
       GRADIENT_CUTOFF     1.0000000000000000E-10
       TAU_CUTOFF     1.0000000000000000E-10
       &XC_FUNCTIONAL  NO_SHORTCUT
         &PADE  T
         &END PADE
       &END XC_FUNCTIONAL
     &END XC
   &END DFT
   &SUBSYS
     &CELL
       A     1.2413800000000002E+01    0.0000000000000000E+00    0.0000000000000000E+00
       B     0.0000000000000000E+00    1.2413800000000002E+01    0.0000000000000000E+00
       C     0.0000000000000000E+00    0.0000000000000000E+00    1.2413800000000002E+01
       MULTIPLE_UNIT_CELL  1 1 1
     &END CELL
     &COORD
O    1.2265692089483851E+01    1.3554390129941853E+00    1.0875425741210302E+01
O    6.4523125712780534E+00    3.7059030017228842E+00    8.6472703373291200E+00
O    7.7679434805491374E-02    2.1684363409616014E+00    8.2608499727948033E+00
O    1.2086328917682346E+01    2.6383236471456235E+00    2.1708319631148218E+00
O    1.2290563434792466E+01    4.1705987030844183E+00    1.2102197401500714E+01
O    7.2035546534508121E+00    9.4146440982934543E-01    4.7596753308529260E+00
O    8.3332259924710925E+00    7.2077559238208195E+00    4.6827252174468637E+00
O    1.2331820354972916E+01    1.1521085584601176E+01    8.0815267568455322E+00
O    3.2742305248728574E+00    4.4591006237003450E+00    9.1745323461747130E+00
O    2.8601657947011661E+00    3.7871321994318938E+00    6.5410904120532702E+00
O    1.3797135980521800E+00    6.3917883108530127E+00    5.6509499049334722E-01
O    1.8717778176468465E+00    8.6859327223318665E+00    2.0908475002935116E+00
O    3.7724126920716277E+00    1.2107291686118634E+01    8.6205990989002608E+00
O    6.4253612010426364E+00    3.6667844669335228E+00    2.7875787966086127E+00
O    1.9996801569167564E+00    1.8525818618605596E+00    4.8671305057775482E+00
O    8.2870264289442588E+00    2.4221945186201714E+00    6.9417301194041929E+00
O    5.7524965525743506E+00    3.3354063225406536E+00    1.2486444073906792E+01
O    1.1313041873264117E+01    5.6568394091370884E+00    2.2481538681310300E+00
O    4.2889086332743593E+00    2.1146774663677381E+00    1.0586400462686642E+01
O    5.3988008779579628E+00    3.3584215761665996E+00    5.4859980676066504E+00
O    6.5093803283316110E+00    1.1870555907452676E+01    7.1448610258284639E-01
O    3.2525927590516717E+00    2.3434818290721129E+00    2.4132514479859108E+00
O    8.0086796499283697E+00    6.3565335203086759E+00    7.4977752039613517E+00
O    5.9288585788258237E+00    6.5082801666043633E+00    1.2195796701642523E+01
O    1.0610385294795590E+01    1.1861264429738627E+01    1.2200574174939945E+01
O    9.3403690756568771E+00    3.6890996107164034E+00    3.5273423653474749E+00
O    1.1111278086578205E+00    5.7890355206451023E+00    6.6473009501981517E+00
O    8.0194995343334323E+00    3.3269739508473051E+00    1.0869758841489807E+01
O    1.2376084676796198E+01    9.6748049821029003E+00    1.1772442429127420E+01
O    4.2098962719503792E+00    7.0914037241392220E+00    8.1403049780540755E+00
O    3.7839656891276197E+00    8.2290488153630559E+00    1.1585038748792359E+01
O    1.1076296436002718E+01    4.5429033328726893E+00    7.8327522122957181E+00
O    1.0435269965490608E+01    8.4217711221835341E+00    1.0328413587523166E+00
O    1.9828015281271729E+00    6.4005825276162502E+00    1.0353823655978358E+01
O    4.7041682767469197E+00    5.6227133611205971E-01    5.6097237226911929E+00
O    8.7178718108893989E+00    1.2242115811187309E+01    8.0976567639231600E+00
O    2.6327341025094988E+00    1.0520521873272914E+01    8.2905623926657623E-02
O    7.2399931187465247E+00    1.0511642196931632E+01    4.2432664330031455E+00
O    2.2807064781619473E+00    2.7612056427341486E-01    1.0807250569989254E+01
O    8.8632061138830220E+00    9.4642072500208629E-01    1.3400856795969851E+00
O    1.9443088048744057E+00    8.0893935868695550E+00    7.5355059867712315E+00
O    9.6598248299588025E+00    8.0355046451626375E+00    9.8565400345210303E+00
O    1.0903669851584361E+01    8.3307153998976027E+00    6.4773146916028308E+00
O    3.5124567442237793E+00    4.8693650210822632E+00    1.5451764009707876E+00
O    7.9775830453592063E+00    8.6026723333305384E+00    1.2050849513770160E+01
O    8.3694035479504603E+00    1.0019371052443075E+01    6.6836141760228838E+00
O    5.6546743218577431E+00    6.0810664230944225E+00    5.5283846573828059E+00
O    1.1742547847645383E+01    1.6241840639033969E+00    5.0859575162073547E+00
O    9.7585719615142921E+00    9.8110347715518849E+00    3.5364867774940962E+00
O    3.9627876574400624E+00    1.0548914651573707E+01    4.6848634346389684E+00
O    9.0110847254970516E-01    6.3699180308686474E+00    4.0614677068442306E+00
O    6.8825857356121780E+00    6.4084220847945055E+00    2.5046902581440671E+00
O    3.8180799995398518E+00    6.6391276583280758E+00    3.7786506828597517E+00
O    6.5639457974901587E+00    8.3081696931559410E+00    8.8142644496196727E+00
O    9.7792965800926588E+00    1.3440562766330380E-01    3.8518038249084521E+00
O    4.1040770115658542E+00    1.1645978558721279E+01    2.2167390496173685E+00
O    5.3225394392113072E+00    8.7370879819812650E+00    2.7520568939069059E+00
O    1.0008064086737125E+01    5.3735087324373128E+00    5.3757728940149310E+00
O    1.2260297782908799E+01    8.6464340629358567E+00    3.9709777917871580E+00
O    2.3431345497116665E+00    1.0747243885368784E+01    6.8128217267251676E+00
O    7.0016612916653997E+00    6.6240597665990308E-01    1.0534341561687867E+01
O    5.1725047982212944E+00    1.0218495319125118E+01    1.0357205957141272E+01
O    1.1186316801594458E+01    5.8851524495734671E+00    1.0299193203865892E+01
O    1.2277001782589707E+01    8.9569716794259708E+00    9.0707884188585997E+00
H    1.2357840653884463E+01    2.3335995753224816E+00    1.1187202568866628E+01
H    1.1946181003855676E+01    1.5338243304140953E+00    9.8820686313882362E+00
H    5.5871540557000445E+00    3.4492983737424607E+00    9.0442905792546728E+00
H    6.8930493554897909E+00    3.0239782285791419E+00    7.9852283560217829E+00
H   -1.4374297116884138E-01    1.5098214846066167E+00    7.5263531243318900E+00
H   -3.8865416711548800E-01    3.0530974755006359E+00    7.9298823362645052E+00
H    1.2176354233152964E+01    2.9746344065097676E+00    1.1924463434421011E+00
H    1.2991627169715377E+01    2.9143170210546994E+00    2.5155346727350105E+00
H    1.1517585159652425E+01    4.3255122446516348E+00    1.1434691026735742E+01
H    1.2784953658522555E+01    5.0635466714145085E+00    1.2040055000819764E+01
H    6.9671401310525471E+00    1.7387343976975933E+00    4.1849967664905972E+00
H    6.2296009063343725E+00    6.8946782722679156E-01    5.1579113656951030E+00
H    7.7273594948731592E+00    7.2216808380993367E+00    5.4888761780281037E+00
H    9.1691701765467801E+00    6.6296086344983500E+00    4.9460727574878360E+00
H    1.2846883768257401E+01    1.1781070688349301E+01    8.9005192602390704E+00
H    1.1983330930254393E+01    1.0563456761596148E+01    8.3168613221533807E+00
H    3.5249173108187657E+00    3.8402074967249171E+00    9.9510006399905304E+00
H    2.4297337650181849E+00    4.9330989925197866E+00    9.5245628999134784E+00
H    2.1731627523309038E+00    4.5583640086451744E+00    6.3013579985287427E+00
H    2.8563500932206338E+00    3.8576048156111948E+00    7.5841394106041555E+00
H    1.1402120515026049E+00    7.1967347480529078E+00    1.1594244541641021E+00
H    2.2451038169252793E+00    6.0044688738683796E+00    1.0028737587405241E+00
H    2.8159635337992523E+00    8.9701748198802331E+00    2.2995199891602773E+00
H    1.3289544665062281E+00    8.9939926467783824E+00    2.8983257079435623E+00
H    4.4550218369063854E+00    1.1540339425004015E+01    9.1644203320320639E+00
H    3.0505860859906462E+00    1.2474023132571102E+01    9.2862357274700962E+00
H    5.8591510063949350E+00    3.4580809397755741E+00    3.6616773633305302E+00
H    5.8328342793244348E+00    3.4003555439706110E+00    1.9823495664217061E+00
H    9.5573469725967342E-01    1.6451477306436582E+00    4.8407733836337981E+00
H    2.2282991647305019E+00    2.4813299829886732E+00    5.6872650230019692E+00
H    8.4431290012361320E+00    1.6050270153559680E+00    7.5442513472484807E+00
H    8.0660702671729645E+00    2.0137128293831492E+00    6.0338191030232426E+00
H    5.2179579256215520E+00    2.8944435585800119E+00    1.1676379626020632E+01
H    6.6808372388708221E+00    3.4137338960721797E+00    1.1974227321954992E+01
H    1.0787628803145951E+01    6.5181395670630451E+00    2.0987991922630425E+00
H    1.1679773573101079E+01    5.3602522151474350E+00    1.3423877172509946E+00
H    3.4353203684196596E+00    1.5422281194348924E+00    1.0899348788956701E+01
H    4.8360131199373795E+00    1.4266306188289102E+00    1.0089887937303690E+01
H    4.3860802582003666E+00    3.3639520802570262E+00    5.6883523933772135E+00
H    5.6851424648153479E+00    4.3694414775811445E+00    5.5473743673649949E+00
H    6.2905172776228637E+00    1.1824099733748080E+01    1.7188529435635165E+00
H    5.6254822935021069E+00    1.2118652077614966E+01    3.2827489265278664E-01
H    3.5448338646079369E+00    1.3905272139791154E+00    2.1815170599109535E+00
H    2.6082617908447712E+00    2.2011793681999090E+00    3.2448585926832010E+00
H    7.1214310944129018E+00    5.8746986475790681E+00    7.5240902705253445E+00
H    8.6555160452205513E+00    5.7349833608750007E+00    7.0296645633630312E+00
H    6.0004465275650682E+00    5.6511979030142685E+00    1.1673025686980255E+01
H    6.2576534574141025E+00    6.3249880564330789E+00    1.3168261180251973E+01
H    1.1110393485508903E+01    1.2636559250997578E+01    1.1695509562619517E+01
H    1.0264574453193209E+01    1.2297166054267120E+01    1.3044673119309817E+01
H    9.9063257583768127E+00    4.0523254539287148E+00    2.7328096710818661E+00
H    8.5320976562309809E+00    3.4662435851513136E+00    2.9418258347988782E+00
H    1.4549325922372305E+00    6.6684406032654362E+00    7.1063381287423528E+00
H    1.0013233336708813E+00    6.1758231958591709E+00    5.6553319488925959E+00
H    7.9834584102605595E+00    3.6965662970356905E+00    9.9295362401111369E+00
H    8.0702893407904313E+00    2.3148727995364480E+00    1.0750118168091118E+01
H    1.1741851247338277E+01    1.0457041172522674E+01    1.2099135806994640E+01
H    1.2145140467199679E+01    8.9346530857760431E+00    1.2412210742862969E+01
H    3.3373535314761584E+00    7.6121200308666230E+00    7.8531045761947995E+00
H    3.8438071109321963E+00    6.2417161568830535E+00    8.6114175129818680E+00
H    3.1132077807630707E+00    7.6196920981176977E+00    1.1070308623801942E+01
H    4.4752997918974957E+00    7.6309327249731345E+00    1.2076616644959909E+01
H    1.1595109347939456E+01    4.9846383472193789E+00    7.0588447442735074E+00
H    1.0300198428129761E+01    4.1359917521732994E+00    7.3179795841153075E+00
H    1.0066803629045314E+01    8.9449101926883401E+00    1.8648409458421173E+00
H    9.5721275817981510E+00    8.2654871620116594E+00    4.9820470823349627E-01
H    1.3188214514393295E+00    6.6901027276301095E+00    9.6503048603163109E+00
H    1.4021624816976883E+00    6.4512365186885088E+00    1.1227722789148039E+01
H    4.1225373888740346E+00    1.3301382656578760E+00    5.2661059713498064E+00
H    4.6863100279910714E+00    6.4323888154001740E-01    6.6181558656211239E+00
H    9.4703533710556957E+00    1.2334177792059297E+01    8.7409520154269149E+00
H    8.8486737260985855E+00    1.1353175343935943E+01    7.5414016813719860E+00
H    1.7346635260618646E+00    1.0023247752455983E+01    1.4531246290899374E-01
H    3.3374323737186278E+00    9.8445600332821819E+00   -2.3573946363470627E-01
H    7.0505799823410200E+00    1.1506005604268223E+01    4.1255571139599345E+00
H    6.4716019298301495E+00    9.9354966266938867E+00    3.7910911532776117E+00
H    1.3268589592360776E+00    5.8377393429957825E-01    1.1128929736799615E+01
H    2.5223619020798300E+00   -5.4513600115487559E-01    1.1460522258349997E+01
H    8.7695024945574112E+00    1.8730405160140970E+00    9.9029984538962823E-01
H    8.0908940305255594E+00    3.3984351975180033E-01    9.9164118000318746E-01
H    1.1203607709244541E+00    8.3716512006965260E+00    8.1792323344825260E+00
H    2.0883187077765872E+00    8.9941496096234879E+00    7.0138877035393250E+00
H    8.9092455661168852E+00    7.7938840102080214E+00    9.2222118549480037E+00
H    9.0650442925884072E+00    8.4492400512122092E+00    1.0614283870982144E+01
H    1.0125293357175210E+01    7.6972294325267550E+00    6.4507709233859725E+00
H    1.0499855152538403E+01    9.1992705817145470E+00    6.1555311709818366E+00
H    3.4971231604226354E+00    3.9586904012078721E+00    2.1122844778208454E+00
H    4.0584146620665891E+00    4.5845739999387556E+00    7.4299547661157594E-01
H    7.3547300979711183E+00    9.3907717765818717E+00    1.2034662471096214E+01
H    7.3341917810682391E+00    7.7711469163738291E+00    1.2054219542751587E+01
H    7.8271815569077896E+00    1.0161811172290198E+01    5.7814619639485310E+00
H    7.7120113817887317E+00    9.5092512996365279E+00    7.2843726304682646E+00
H    5.2899463871884205E+00    6.4889429596086581E+00    6.3929757321024061E+00
H    4.8678252868839236E+00    6.3175211180857049E+00    4.8313586361435732E+00
H    1.1521862541305904E+01    2.1923283626798953E+00    4.2496614328176303E+00
H    1.1222791846958543E+01    7.8414795598351095E-01    4.7829538343864080E+00
H    8.8119942350216363E+00    9.6778779613702604E+00    3.9666686831540501E+00
H    9.9342844970877415E+00    1.0814156988790817E+01    3.7816372858600742E+00
H    3.1082289528955762E+00    1.0546326407174501E+01    5.2868803913855942E+00
H    4.3132584907103544E+00    1.1455620653057869E+01    5.0610780320730138E+00
H    4.2220406784270686E-01    7.3045102192443956E+00    3.8013135649936882E+00
H    2.9772343931248735E-01    5.7724401932040603E+00    3.4526995513594061E+00
H    7.5860591209727861E+00    6.5678847601545778E+00    3.2915836809343988E+00
H    6.6758385347281246E+00    5.3831754309178290E+00    2.5200133494031980E+00
H    3.8532534172199959E+00    6.3060046348700780E+00    2.8123783749706006E+00
H    2.7953246440734763E+00    6.5485847389780973E+00    3.9537741358608081E+00
H    5.5553176437612395E+00    8.0120599991626467E+00    8.6583941104719742E+00
H    6.9993930795499884E+00    7.4780238970676303E+00    8.4104344163927482E+00
H    9.5571588990613954E+00    7.3280446145770506E-01    3.0174818797267560E+00
H    8.9237164310791197E+00    1.3437510586178569E-01    4.4076447871976692E+00
H    3.8482457315674958E+00    1.1174438455170854E+01    1.3441470566655966E+00
H    3.9626056228576174E+00    1.0964278466897598E+01    3.0102551897945480E+00
H    5.9449661422369191E+00    7.8891857853088574E+00    2.7995741535957817E+00
H    4.7652120121298633E+00    8.7229381074888117E+00    3.5906717261655792E+00
H    1.0905815782848235E+01    5.5302201800699082E+00    4.9342869455823815E+00
H    9.5033245323307103E+00    4.6732708376731864E+00    4.7171193166482048E+00
H    1.1491942104116722E+01    9.0018887406788455E+00    3.3983649908367974E+00
H    1.1959903629039642E+01    8.7851547644292758E+00    4.9401026898661469E+00
H    2.9404439844275023E+00    1.1333326721638654E+01    7.4881123877728477E+00
H    1.3993518978819748E+00    1.1120275827043045E+01    6.8063456551224544E+00
H    7.2181951384379692E+00    1.2809608485319562E-01    9.7032371258682328E+00
H    7.1648660378588751E+00    1.0772078745152937E-01    1.1367500988399863E+01
H    4.8113412051055304E+00    9.3237474535607507E+00    1.0837702423611875E+01
H    6.0816481698035769E+00    9.8060697913094597E+00    1.0186927365163466E+01
H    1.0565212262638683E+01    6.7306908548556272E+00    1.0314443980528255E+01
H    1.1239043366237016E+01    5.5938377372086645E+00    9.3143651163972727E+00
H    1.2188456954751745E+01    8.9927460848973855E+00    1.0127821223536520E+01
H    1.1415764242458174E+01    8.6329965781021443E+00    8.6365688433575016E+00
     &END COORD
     &VELOCITY
           2.4353373553026440E-04   -1.2006097602671398E-04    8.6380096424560688E-05
           5.1311970176665286E-05   -1.2708266206688797E-06   -1.4048482610678690E-05
          -1.3298767757271145E-04   -8.3910828186436722E-05   -1.7227772179833413E-04
           3.2311111387326976E-04   -2.8974228281227691E-04    2.2815855771197356E-04
           3.6807112799803213E-04   -1.6540691872159952E-04    8.2168021722524390E-05
           8.6843810078079915E-05   -1.6733145785018604E-04    2.3233906169638772E-04
          -1.9144732815606618E-04    3.6490306372579126E-05    1.7692428816512567E-04
          -2.7339212137065128E-04   -2.0181330325851276E-06   -2.5185283188654235E-04
          -2.9114797156544193E-04    1.4202524657042214E-04   -9.4207613533634638E-05
           4.9604684382869835E-05    1.9764986075597574E-04   -3.9675655902462608E-05
          -1.0338266296052787E-04    2.5533554886971024E-04   -1.7753567723182833E-04
           1.2393271803190462E-04   -5.1522817964777060E-05    2.4869105054682453E-04
           3.7171385612065696E-05    1.3912087635396269E-04   -2.6001104941361490E-04
          -9.0584380440933678E-05   -5.4256969623649889E-05    1.3571849163674499E-04
          -1.3532069033774057E-05    2.9312535024507457E-04   -1.1035216194621313E-04
           3.4365663856323952E-04    1.2592891247515891E-04    1.2984947778545527E-04
           3.1061310688854180E-05   -2.1491061234617327E-04    1.3642911352252428E-04
          -1.1197980598693622E-04    8.8708519145397425E-05    8.1551359031274877E-05
           7.2553977149654873E-05   -7.4882564047949155E-05   -3.7593240429617368E-05
          -3.9311008768929712E-05    7.7794970773451447E-05   -4.9503853884304339E-05
           1.3050850736282194E-04    3.2997372840519671E-05    2.3384938882072616E-04
          -2.3506710107533532E-04   -1.3038351983392951E-04   -7.8872779760849016E-05
           2.2656471395871106E-04    3.8984618360113275E-06   -1.0674489559556558E-04
          -4.8910812396542487E-04   -8.8250996371611265E-05    4.1168871695512379E-05
          -2.3516505104552720E-04    3.0141522875755187E-05   -4.3307021529666285E-05
           2.3874077440430748E-04    1.6479626533071558E-04   -6.5961174427224232E-06
           2.1570400442338923E-06   -3.6687604474249571E-04    1.9056449024738529E-05
           1.5263290745669148E-04   -4.5423683353368461E-05   -4.7828240981072821E-05
          -2.4361660474250295E-04   -1.5799538490299478E-04    1.4701044899542178E-04
          -4.6332302278572693E-05    6.6958418741152245E-05   -1.4093723621122093E-04
           7.0402526347995131E-05    1.4787938508831230E-04    2.3294646136455852E-04
          -1.0541845847301244E-04    9.0959878374889311E-05    1.4239486316552330E-04
           3.9447066267673029E-04    6.7697585284342705E-05    1.1078543440049687E-04
          -7.7642050399238656E-05   -1.2536442818526035E-04   -1.9896428319923383E-04
           4.0834731830795517E-04    1.4767279245007526E-04    2.0697580191127389E-05
          -2.3059415804847677E-04   -1.2069261926259115E-04    1.1528847271922600E-04
          -2.2453224222892805E-04    3.2508315209949889E-04   -1.1011175869319596E-04
          -2.5223464560068513E-05    3.9102949516786221E-04    1.6353834116338112E-04
           2.2717843314467669E-05   -6.2765751650408124E-06    4.4671040028148114E-05
          -2.2749659830622649E-04   -6.9576305509201422E-06    6.3788388337102309E-05
          -7.5841302718892401E-05    8.7087799011908423E-05   -2.6939094015342857E-04
          -1.5166914071884020E-04   -1.6482446184615438E-04   -8.8619423401906946E-05
           8.3255811680968818E-06   -5.3065384631344028E-05   -7.5044278375784347E-05
           6.6403553283113614E-05    1.1865592146580831E-04   -1.6876922794189689E-04
          -3.6854176965732762E-04   -4.4916679521232966E-04   -7.2212204727654825E-05
          -1.2514834926154452E-04   -2.1658705550501439E-04    1.4279407557504518E-05
           1.5301292386713116E-04    7.8212466734554179E-05   -2.6042789655676988E-04
           1.1597437781008402E-04    1.3153166326561929E-04    1.9714489346456651E-05
          -2.7586288469214099E-05    4.9135802991292738E-05   -8.2847135185718049E-05
           1.7533037836977777E-04   -1.0200057778934451E-04   -1.5955910871255726E-05
           9.1305293484754966E-06   -1.7063363096490259E-04   -1.2704533408635277E-04
           2.0532414019934554E-04   -1.8523108331096439E-04    1.5576953260051715E-04
          -9.5082342048485966E-05    3.8898283928848876E-04    6.8143354602384377E-05
          -3.3468517681482560E-05    1.1413973594342972E-04    4.8372670605940892E-05
          -3.2167308794107686E-04   -6.7373694363325227E-05   -3.3440505798387976E-04
          -1.0565699375405686E-04   -1.8612919959385898E-04   -4.1185047196300273E-05
           3.0227443464052458E-04   -1.9476821919323049E-08   -4.0898192669491364E-05
           3.4132859751131675E-04   -7.5666618758993821E-05    3.1369871723507429E-04
           4.8774504483546715E-06    9.5432986766391312E-05    4.0463993790404700E-05
          -7.3525642131355804E-05   -1.1023344657229344E-04   -1.6990266178613220E-04
          -9.5305467321098143E-05    1.5924492797646285E-04    1.0050784054818553E-04
           2.9577992716621064E-04   -2.0302338272618569E-04   -3.8000268554135432E-06
           3.3426751499563521E-05    2.9960856876172147E-05    2.2957098675628484E-05
           2.1247046209847635E-04   -1.8773508816437014E-04   -7.1323934924711658E-05
          -4.5158839413539609E-04   -3.6143060078526988E-05   -6.1976176341263696E-04
           9.6706711087529446E-04   -4.1494673938125508E-04   -1.4270244721971749E-03
           7.4657709737555326E-04    7.4979183340917856E-04   -2.9716006637244436E-05
           1.1944835029958991E-03   -2.4887952170359929E-04   -4.6965328169072988E-04
           3.3415678178085967E-04   -4.4057529885322923E-04   -4.5347033644421443E-04
           1.1012796130005242E-03    2.9083917955141203E-04   -1.2194190254950872E-03
           2.2415342341833367E-04    1.5937251548446484E-03   -3.7781211910977786E-04
           1.0073465758460480E-03   -6.8157982680804475E-04    2.6183752026080954E-04
          -6.9769183618035858E-05    2.4841597115429843E-05   -1.3349984297908349E-04
          -6.5395783736350833E-04   -1.1729839032919914E-04    1.7209949838032306E-04
          -6.3912725034335940E-04   -9.4833908164067000E-04   -2.5753189732199733E-04
          -3.9187509729508288E-04   -2.4417797176574019E-04   -5.0822500047480906E-04
           2.8904185308076659E-04   -2.0455475311450936E-03   -7.4488003304537672E-04
           3.8533435939992039E-04   -1.5649598638837214E-03   -8.1999331589907272E-04
           6.6163782210739471E-04   -2.0530137992821521E-04   -4.7022778535954382E-04
          -4.8571775215379960E-05   -1.4283455067356330E-03    8.4970777264667060E-04
          -5.1040502071515042E-04    9.0124041076314820E-04   -4.3717828656141162E-04
           2.7962496772946391E-04    1.1112791910905165E-04   -5.6980553869491848E-04
          -1.5080494509661908E-03    7.3672779724124314E-04   -5.7541529161193958E-06
           2.4475429620387493E-04    9.7437756642419055E-04   -4.8339679942345303E-04
          -8.5981680085064967E-05    5.9512037267788647E-04   -4.8949501753941654E-05
          -6.8266467564179168E-04   -5.5567223333871380E-04    7.1350489602078427E-04
           4.8033714496635406E-05    6.5011279413485033E-04   -7.7943973949884003E-04
           8.0491911096969163E-05   -7.8343749752707477E-04    7.2435736498325750E-04
           2.5839724571042071E-04    7.5578985191356149E-05   -5.8507007757694978E-04
           3.2468632065106123E-04   -2.7324024724358493E-04    2.5249479694627224E-04
          -1.0539062839343323E-03    5.0616494373577705E-04    7.1049452486840199E-04
           8.0541579377059534E-04   -1.4428395473360369E-04   -9.1111624630438965E-04
          -9.3901405524320959E-05   -1.7440336409970284E-04   -6.6695306718629296E-04
          -5.9667439631542823E-04    2.1020879938603845E-03   -1.6524975842777898E-04
          -5.9413689338597999E-04   -1.8314218673601374E-04   -3.0878549940854838E-04
          -1.1299139623008691E-04   -1.9706794255571562E-04    5.4164798335390744E-04
           3.7379192865464775E-04   -2.2187500989506961E-04   -3.6215118742736991E-04
          -5.2111287106384747E-04    8.9091209793542030E-04   -5.6207250900530161E-04
           6.7919292604750334E-04    1.3343181455217806E-04   -5.4958333089150482E-04
          -5.0955912346579994E-05   -7.8811310900519399E-04    5.3306738437073503E-04
          -8.4615276352377196E-05   -4.3969810880331768E-04   -1.5061331385066712E-03
           1.9621493944773066E-04    7.0658921103911596E-04    7.9834173948266352E-04
          -3.1086266729441771E-04    7.4710976670908427E-04    4.9983161016231320E-04
          -7.7088036734743225E-04    8.7923123999167840E-04    4.4906439902227350E-04
           4.7843808737842923E-04    2.0885304145907557E-04    9.9081078441769113E-04
           2.7383478090474070E-04   -1.2076470161508288E-05    2.0312636572809273E-03
           2.2238602224841902E-04    4.5732113705455651E-04    2.0297495633899583E-03
          -1.3983314820419527E-04    6.4110517559116801E-04    2.3541721875172656E-04
           1.0634351964151816E-03   -8.1406755449144324E-04    2.5592615929276725E-04
           5.5764666824081909E-04   -2.4944020396049370E-04    1.0095491375728431E-03
           8.2355304834991682E-04    4.6265598281792987E-04    1.0873683440565094E-03
           1.0554542732434211E-03    1.4711843503864216E-03   -1.9257994644715506E-04
          -5.9301436635628157E-04    1.4338243179583085E-03   -1.0518598720355705E-03
           1.7009542630570720E-04   -2.7229621441362688E-04   -1.8275874433865537E-04
          -3.9794180045391454E-04    1.1377334676014974E-03    1.5111872075249255E-04
          -2.1010779020351583E-04    2.5908254733765350E-04    1.2965840741067686E-03
           5.7014687399337561E-04    4.3663748723968173E-04   -1.4622705924428108E-04
           2.7451658005790951E-04   -1.1055104188380230E-04   -2.7011911347593506E-04
          -1.5488517943961541E-03   -4.8268639177323600E-04    1.0661735519958428E-03
           1.1223093817443521E-04    6.1336181166918692E-04   -2.4337739021621768E-04
          -8.4642821008710980E-04    2.7314900747551607E-04    4.4966165017928581E-04
          -9.0281864257622921E-04    4.6471968390648477E-04   -2.6632644266265149E-04
          -1.1909602595322460E-03    3.2546725742960516E-05   -5.5177771592113638E-05
           2.6878284876929868E-04   -1.1019214431259243E-03    6.7804196598150561E-04
           3.1926309388655410E-04    1.0177813137620961E-03   -3.0847823992498781E-04
          -4.2284471692020925E-04    4.3959034012127762E-04   -8.2960000476394401E-04
           4.5763012013056537E-04   -7.2873611066178747E-04   -1.9810871953685963E-04
          -2.5435809607073854E-04   -2.9857092395723544E-04    4.0812967128226396E-04
          -1.7369381694281168E-04    6.5701533356639439E-04    1.2674523034423197E-03
           2.5615963331750342E-04   -1.0911306572165729E-06    1.1679000472648608E-03
          -1.6308109848745599E-05    1.3149337651265419E-03    1.0407917756272398E-03
           8.9763869711833558E-04   -3.3652501425540925E-04    5.8254652400485836E-04
           1.0486726918965182E-03    1.4387708623026015E-04   -1.3227328924967142E-03
          -7.1280006662065038E-04    3.7576614693755688E-04   -7.8229807967196007E-04
          -4.9597517539826200E-05    2.0943390437563132E-05   -3.3577883355500395E-04