 # Version information for this restart file 
 # current date 2023-07-27 11:51:30.524
 # current working dir /mnt/lustre/indy2lfs/work/tc047/tc047/mrnuff-cirrus/cp2k/nuff-benchmarks/H2O-64-1node
 # Program compiled at                              Thu Jun 30 12:29:55 BST 2022
 # Program compiled on                                             cirrus-login3
 # Program compiled for                                             Cirrus-intel
 # Source code revision number                                       git:e635599
 &GLOBAL
   PRINT_LEVEL  LOW
   PROJECT_NAME H2O-64
   RUN_TYPE  MD
 &END GLOBAL
 &MOTION
   &MD
     ENSEMBLE  NVE
     STEPS  10
     TIMESTEP     4.9999999999999994E-01
     STEP_START_VAL  10
     TIME_START_VAL     4.9999999999999982E+00
     ECONS_START_VAL    -1.1007588181101248E+03
     TEMPERATURE     3.0000000000000000E+02
     &AVERAGES  T
       &RESTART_AVERAGES
         ITIMES_START  1
         AVECPU     7.0415132483234633E+00
         AVEHUGONIOT     0.0000000000000000E+00
         AVETEMP_BARO     0.0000000000000000E+00
         AVEPOT    -1.1010668160173025E+03
         AVEKIN     3.0070034549356106E-01
         AVETEMP     3.3142598856028911E+02
         AVEKIN_QM     0.0000000000000000E+00
         AVETEMP_QM     0.0000000000000000E+00
         AVEVOL     1.2909542132085598E+04
         AVECELL_A     2.3458682268415796E+01
         AVECELL_B     2.3458682268415796E+01
         AVECELL_C     2.3458682268415796E+01
         AVEALPHA     9.0000000000000000E+01
         AVEBETA     9.0000000000000000E+01
         AVEGAMMA     9.0000000000000000E+01
         AVE_ECONS    -1.0896372676881988E+01
         AVE_PRESS     0.0000000000000000E+00
         AVE_PXX     0.0000000000000000E+00
       &END RESTART_AVERAGES
     &END AVERAGES
   &END MD
 &END MOTION
 &FORCE_EVAL
   METHOD  QS
   &DFT
     BASIS_SET_FILE_NAME GTH_BASIS_SETS
     POTENTIAL_FILE_NAME POTENTIAL
     &SCF
       SCF_GUESS  ATOMIC
       &OT  T
         MINIMIZER  DIIS
       &END OT
       &PRINT
         &RESTART  OFF
         &END RESTART
       &END PRINT
     &END SCF
     &QS
       EPS_DEFAULT     9.9999999999999998E-13
       EXTRAPOLATION  PS
       EXTRAPOLATION_ORDER  3
     &END QS
     &MGRID
       CUTOFF     2.8000000000000000E+02
       REL_CUTOFF     3.0000000000000000E+01
     &END MGRID
     &XC
       DENSITY_CUTOFF     1.0000000000000000E-10
       GRADIENT_CUTOFF     1.0000000000000000E-10
       TAU_CUTOFF     1.0000000000000000E-10
       &XC_FUNCTIONAL  NO_SHORTCUT
         &PADE  T
         &END PADE
       &END XC_FUNCTIONAL
     &END XC
   &END DFT
   &SUBSYS
     &CELL
       A     1.2413800000000002E+01    0.0000000000000000E+00    0.0000000000000000E+00
       B     0.0000000000000000E+00    1.2413800000000002E+01    0.0000000000000000E+00
       C     0.0000000000000000E+00    0.0000000000000000E+00    1.2413800000000002E+01
       MULTIPLE_UNIT_CELL  1 1 1
     &END CELL
     &COORD
O    1.2265692089484148E+01    1.3554390129941774E+00    1.0875425741210501E+01
O    6.4523125712781439E+00    3.7059030017230374E+00    8.6472703373291608E+00
O    7.7679434805529954E-02    2.1684363409618483E+00    8.2608499727946363E+00
O    1.2086328917682037E+01    2.6383236471457643E+00    2.1708319631148409E+00
O    1.2290563434792510E+01    4.1705987030845266E+00    1.2102197401501245E+01
O    7.2035546534507899E+00    9.4146440982922808E-01    4.7596753308530184E+00
O    8.3332259924710215E+00    7.2077559238210274E+00    4.6827252174469001E+00
O    1.2331820354972786E+01    1.1521085584601202E+01    8.0815267568454310E+00
O    3.2742305248728938E+00    4.4591006237001647E+00    9.1745323461747699E+00
O    2.8601657947012811E+00    3.7871321994318339E+00    6.5410904120531672E+00
O    1.3797135980522253E+00    6.3917883108529852E+00    5.6509499049332834E-01
O    1.8717778176466737E+00    8.6859327223321525E+00    2.0908475002934024E+00
O    3.7724126920715846E+00    1.2107291686118609E+01    8.6205990989000050E+00
O    6.4253612010426142E+00    3.6667844669336400E+00    2.7875787966086167E+00
O    1.9996801569167535E+00    1.8525818618607151E+00    4.8671305057775571E+00
O    8.2870264289442748E+00    2.4221945186201390E+00    6.9417301194041148E+00
O    5.7524965525742777E+00    3.3354063225406581E+00    1.2486444073906751E+01
O    1.1313041873264375E+01    5.6568394091371275E+00    2.2481538681309692E+00
O    4.2889086332746880E+00    2.1146774663677315E+00    1.0586400462686990E+01
O    5.3988008779578882E+00    3.3584215761667324E+00    5.4859980676065501E+00
O    6.5093803283314786E+00    1.1870555907452298E+01    7.1448610258287792E-01
O    3.2525927590518431E+00    2.3434818290720525E+00    2.4132514479860601E+00
O    8.0086796499284212E+00    6.3565335203088651E+00    7.4977752039607344E+00
O    5.9288585788255235E+00    6.5082801666041767E+00    1.2195796701642596E+01
O    1.0610385294795739E+01    1.1861264429738394E+01    1.2200574174939950E+01
O    9.3403690756570601E+00    3.6890996107164997E+00    3.5273423653474669E+00
O    1.1111278086578757E+00    5.7890355206452320E+00    6.6473009501981695E+00
O    8.0194995343335105E+00    3.3269739508473091E+00    1.0869758841489755E+01
O    1.2376084676796406E+01    9.6748049821030264E+00    1.1772442429127665E+01
O    4.2098962719503890E+00    7.0914037241390711E+00    8.1403049780540897E+00
O    3.7839656891274074E+00    8.2290488153631163E+00    1.1585038748792865E+01
O    1.1076296436002808E+01    4.5429033328724557E+00    7.8327522122955866E+00
O    1.0435269965490477E+01    8.4217711221834577E+00    1.0328413587522944E+00
O    1.9828015281274598E+00    6.4005825276166251E+00    1.0353823655978628E+01
O    4.7041682767469695E+00    5.6227133611211400E-01    5.6097237226910464E+00
O    8.7178718108893918E+00    1.2242115811187375E+01    8.0976567639233750E+00
O    2.6327341025094562E+00    1.0520521873272553E+01    8.2905623926740696E-02
O    7.2399931187468294E+00    1.0511642196931636E+01    4.2432664330029350E+00
O    2.2807064781618425E+00    2.7612056427318671E-01    1.0807250569989122E+01
O    8.8632061138829616E+00    9.4642072500214902E-01    1.3400856795974196E+00
O    1.9443088048743336E+00    8.0893935868695870E+00    7.5355059867710716E+00
O    9.6598248299587688E+00    8.0355046451626997E+00    9.8565400345212844E+00
O    1.0903669851584475E+01    8.3307153998977626E+00    6.4773146916025945E+00
O    3.5124567442237522E+00    4.8693650210821948E+00    1.5451764009707600E+00
O    7.9775830453592018E+00    8.6026723333303394E+00    1.2050849513770736E+01
O    8.3694035479504265E+00    1.0019371052442853E+01    6.6836141760226502E+00
O    5.6546743218580229E+00    6.0810664230946516E+00    5.5283846573828130E+00
O    1.1742547847645344E+01    1.6241840639033851E+00    5.0859575162073538E+00
O    9.7585719615142565E+00    9.8110347715521211E+00    3.5364867774940696E+00
O    3.9627876574400349E+00    1.0548914651573901E+01    4.6848634346389213E+00
O    9.0110847254980542E-01    6.3699180308685257E+00    4.0614677068442280E+00
O    6.8825857356121478E+00    6.4084220847945295E+00    2.5046902581441959E+00
O    3.8180799995398726E+00    6.6391276583281309E+00    3.7786506828596655E+00
O    6.5639457974899811E+00    8.3081696931557580E+00    8.8142644496198557E+00
O    9.7792965800925220E+00    1.3440562766330280E-01    3.8518038249085196E+00
O    4.1040770115655709E+00    1.1645978558721449E+01    2.2167390496174302E+00
O    5.3225394392113925E+00    8.7370879819812544E+00    2.7520568939069272E+00
O    1.0008064086737232E+01    5.3735087324373056E+00    5.3757728940149390E+00
O    1.2260297782908680E+01    8.6464340629361249E+00    3.9709777917869884E+00
O    2.3431345497116878E+00    1.0747243885368572E+01    6.8128217267253834E+00
O    7.0016612916654202E+00    6.6240597665990875E-01    1.0534341561687942E+01
O    5.1725047982212411E+00    1.0218495319125203E+01    1.0357205957141177E+01
O    1.1186316801594124E+01    5.8851524495734457E+00    1.0299193203865990E+01
O    1.2277001782589688E+01    8.9569716794262444E+00    9.0707884188588039E+00
H    1.2357840653883908E+01    2.3335995753230376E+00    1.1187202568865617E+01
H    1.1946181003855541E+01    1.5338243304131667E+00    9.8820686313884476E+00
H    5.5871540557014567E+00    3.4492983737409424E+00    9.0442905792568471E+00
H    6.8930493554863475E+00    3.0239782285783980E+00    7.9852283560209854E+00
H   -1.4374297117030074E-01    1.5098214846047981E+00    7.5263531243346140E+00
H   -3.8865416711626999E-01    3.0530974755008331E+00    7.9298823362662683E+00
H    1.2176354233155612E+01    2.9746344065056189E+00    1.1924463434414514E+00
H    1.2991627169714787E+01    2.9143170210554268E+00    2.5155346727349372E+00
H    1.1517585159654503E+01    4.3255122446510210E+00    1.1434691026735258E+01
H    1.2784953658522419E+01    5.0635466714140600E+00    1.2040055000812185E+01
H    6.9671401310544478E+00    1.7387343976995657E+00    4.1849967664928354E+00
H    6.2296009063340083E+00    6.8946782722595568E-01    5.1579113656938320E+00
H    7.7273594948724940E+00    7.2216808380971873E+00    5.4888761780281659E+00
H    9.1691701765446236E+00    6.6296086344960576E+00    4.9460727574870447E+00
H    1.2846883768257383E+01    1.1781070688351802E+01    8.9005192602380170E+00
H    1.1983330930255846E+01    1.0563456761595603E+01    8.3168613221543932E+00
H    3.5249173108189691E+00    3.8402074967253181E+00    9.9510006399908093E+00
H    2.4297337650177884E+00    4.9330989925201321E+00    9.5245628999123664E+00
H    2.1731627523290467E+00    4.5583640086436059E+00    6.3013579985292552E+00
H    2.8563500932220625E+00    3.8576048156130565E+00    7.5841394106044886E+00
H    1.1402120515027987E+00    7.1967347480542756E+00    1.1594244541626224E+00
H    2.2451038169241522E+00    6.0044688738675500E+00    1.0028737587422574E+00
H    2.8159635337997040E+00    8.9701748198763838E+00    2.2995199891604288E+00
H    1.3289544665075355E+00    8.9939926467749185E+00    2.8983257079457165E+00
H    4.4550218369064956E+00    1.1540339425004007E+01    9.1644203320319892E+00
H    3.0505860859910197E+00    1.2474023132569993E+01    9.2862357274717287E+00
H    5.8591510063946632E+00    3.4580809397755337E+00    3.6616773633303392E+00
H    5.8328342793251675E+00    3.4003555439695607E+00    1.9823495664214339E+00
H    9.5573469725978455E-01    1.6451477306437212E+00    4.8407733836328664E+00
H    2.2282991647312773E+00    2.4813299829869280E+00    5.6872650230029178E+00
H    8.4431290012369100E+00    1.6050270153554957E+00    7.5442513472475765E+00
H    8.0660702671746058E+00    2.0137128293841893E+00    6.0338191030226396E+00
H    5.2179579256218096E+00    2.8944435585818526E+00    1.1676379626019566E+01
H    6.6808372388706498E+00    3.4137338960715651E+00    1.1974227321955199E+01
H    1.0787628803144715E+01    6.5181395670619597E+00    2.0987991922622644E+00
H    1.1679773573100631E+01    5.3602522151470362E+00    1.3423877172506760E+00
H    3.4353203684183935E+00    1.5422281194349885E+00    1.0899348788953379E+01
H    4.8360131199378307E+00    1.4266306188297195E+00    1.0089887937303255E+01
H    4.3860802582006180E+00    3.3639520802573735E+00    5.6883523933798754E+00
H    5.6851424648152253E+00    4.3694414775811170E+00    5.5473743673642169E+00
H    6.2905172776220555E+00    1.1824099733752034E+01    1.7188529435633320E+00
H    5.6254822935029276E+00    1.2118652077617368E+01    3.2827489265266702E-01
H    3.5448338646067166E+00    1.3905272139797491E+00    2.1815170599092744E+00
H    2.6082617908442587E+00    2.2011793682000844E+00    3.2448585926825451E+00
H    7.1214310944135359E+00    5.8746986475783034E+00    7.5240902705293502E+00
H    8.6555160452203452E+00    5.7349833608724410E+00    7.0296645633654293E+00
H    6.0004465275679104E+00    5.6511979030149888E+00    1.1673025686979045E+01
H    6.2576534574154685E+00    6.3249880564330647E+00    1.3168261180251585E+01
H    1.1110393485507053E+01    1.2636559250997564E+01    1.1695509562618716E+01
H    1.0264574453193406E+01    1.2297166054266823E+01    1.3044673119309984E+01
H    9.9063257583756101E+00    4.0523254539293152E+00    2.7328096710808563E+00
H    8.5320976562308832E+00    3.4662435851507674E+00    2.9418258347995483E+00
H    1.4549325922342566E+00    6.6684406032659256E+00    7.1063381287435456E+00
H    1.0013233336706218E+00    6.1758231958593885E+00    5.6553319488927265E+00
H    7.9834584102621262E+00    3.6965662970349471E+00    9.9295362401113980E+00
H    8.0702893407914473E+00    2.3148727995365928E+00    1.0750118168091374E+01
H    1.1741851247337546E+01    1.0457041172522516E+01    1.2099135806993642E+01
H    1.2145140467197203E+01    8.9346530857756612E+00    1.2412210742861664E+01
H    3.3373535314763463E+00    7.6121200308661461E+00    7.8531045761945313E+00
H    3.8438071109327159E+00    6.2417161568844328E+00    8.6114175129829214E+00
H    3.1132077807658058E+00    7.6196920981173752E+00    1.1070308623798459E+01
H    4.4752997918982365E+00    7.6309327249726131E+00    1.2076616644958376E+01
H    1.1595109347939623E+01    4.9846383472194935E+00    7.0588447442728111E+00
H    1.0300198428127658E+01    4.1359917521753307E+00    7.3179795841170323E+00
H    1.0066803629045044E+01    8.9449101926892549E+00    1.8648409458422690E+00
H    9.5721275817994069E+00    8.2654871620118282E+00    4.9820470823212670E-01
H    1.3188214514375451E+00    6.6901027276280276E+00    9.6503048603179344E+00
H    1.4021624816951501E+00    6.4512365186851914E+00    1.1227722789147141E+01
H    4.1225373888739725E+00    1.3301382656579914E+00    5.2661059713502985E+00
H    4.6863100279903946E+00    6.4323888153798225E-01    6.6181558656213237E+00
H    9.4703533710562429E+00    1.2334177792060725E+01    8.7409520154273057E+00
H    8.8486737260996993E+00    1.1353175343937203E+01    7.5414016813704210E+00
H    1.7346635260608645E+00    1.0023247752458145E+01    1.4531246290740779E-01
H    3.3374323737190186E+00    9.8445600332823417E+00   -2.3573946363353748E-01
H    7.0505799823404836E+00    1.1506005604268244E+01    4.1255571139617970E+00
H    6.4716019298288190E+00    9.9354966266944285E+00    3.7910911532801861E+00
H    1.3268589592368063E+00    5.8377393430356128E-01    1.1128929736798490E+01
H    2.5223619020797714E+00   -5.4513600115361982E-01    1.1460522258351595E+01
H    8.7695024945571802E+00    1.8730405160132761E+00    9.9029984538922078E-01
H    8.0908940305275134E+00    3.3984351975211896E-01    9.9164117999781964E-01
H    1.1203607709234578E+00    8.3716512006957942E+00    8.1792323344821476E+00
H    2.0883187077778249E+00    8.9941496096244720E+00    7.0138877035408731E+00
H    8.9092455661184555E+00    7.7938840102029339E+00    9.2222118549466483E+00
H    9.0650442925875279E+00    8.4492400512122661E+00    1.0614283870981826E+01
H    1.0125293357177464E+01    7.6972294325241011E+00    6.4507709233873491E+00
H    1.0499855152534986E+01    9.1992705817144209E+00    6.1555311709857179E+00
H    3.4971231604232678E+00    3.9586904012081030E+00    2.1122844778210483E+00
H    4.0584146620663493E+00    4.5845739999393365E+00    7.4299547661122378E-01
H    7.3547300979718297E+00    9.3907717765823513E+00    1.2034662471092483E+01
H    7.3341917810681059E+00    7.7711469163731381E+00    1.2054219542748610E+01
H    7.8271815569081085E+00    1.0161811172290546E+01    5.7814619639485310E+00
H    7.7120113817877636E+00    9.5092512996372065E+00    7.2843726304681358E+00
H    5.2899463871853571E+00    6.4889429596059580E+00    6.3929757321024328E+00
H    4.8678252868827041E+00    6.3175211180847857E+00    4.8313586361446390E+00
H    1.1521862541305444E+01    2.1923283626802235E+00    4.2496614328178106E+00
H    1.1222791846957449E+01    7.8414795598415521E-01    4.7829538343866691E+00
H    8.8119942350200109E+00    9.6778779613709869E+00    3.9666686831519065E+00
H    9.9342844970892550E+00    1.0814156988789616E+01    3.7816372858615237E+00
H    3.1082289528958031E+00    1.0546326407174016E+01    5.2868803913856208E+00
H    4.3132584907108242E+00    1.1455620653057560E+01    5.0610780320739472E+00
H    4.2220406784311976E-01    7.3045102192442313E+00    3.8013135649927006E+00
H    2.9772343931240247E-01    5.7724401932037281E+00    3.4526995513607091E+00
H    7.5860591209739328E+00    6.5678847601539339E+00    3.2915836809335635E+00
H    6.6758385347277738E+00    5.3831754309180289E+00    2.5200133494027503E+00
H    3.8532534172195225E+00    6.3060046348698622E+00    2.8123783749703928E+00
H    2.7953246440736392E+00    6.5485847389776923E+00    3.9537741358610394E+00
H    5.5553176437610716E+00    8.0120599991637711E+00    8.6583941104695494E+00
H    6.9993930795489510E+00    7.4780238970673789E+00    8.4104344163936560E+00
H    9.5571588990612462E+00    7.3280446145721045E-01    3.0174818797265308E+00
H    8.9237164310789012E+00    1.3437510586340787E-01    4.4076447871974027E+00
H    3.8482457315704122E+00    1.1174438455170304E+01    1.3441470566654723E+00
H    3.9626056228598436E+00    1.0964278466896671E+01    3.0102551897943584E+00
H    5.9449661422362006E+00    7.8891857853081131E+00    2.7995741535963043E+00
H    4.7652120121280630E+00    8.7229381074886163E+00    3.5906717261640146E+00
H    1.0905815782849155E+01    5.5302201800696640E+00    4.9342869455827572E+00
H    9.5033245323303781E+00    4.6732708376730576E+00    4.7171193166487129E+00
H    1.1491942104116440E+01    9.0018887406801209E+00    3.3983649908381328E+00
H    1.1959903629042554E+01    8.7851547644283112E+00    4.9401026898669365E+00
H    2.9404439844274437E+00    1.1333326721639152E+01    7.4881123877729125E+00
H    1.3993518978820070E+00    1.1120275827043061E+01    6.8063456551222492E+00
H    7.2181951384371787E+00    1.2809608485404639E-01    9.7032371258676449E+00
H    7.1648660378583973E+00    1.0772078745206756E-01    1.1367500988400172E+01
H    4.8113412051061442E+00    9.3237474535603475E+00    1.0837702423612008E+01
H    6.0816481698034970E+00    9.8060697913092483E+00    1.0186927365163525E+01
H    1.0565212262639980E+01    6.7306908548574507E+00    1.0314443980526940E+01
H    1.1239043366237919E+01    5.5938377372090846E+00    9.3143651163976404E+00
H    1.2188456954751272E+01    8.9927460848964920E+00    1.0127821223536206E+01
H    1.1415764242460412E+01    8.6329965780990978E+00    8.6365688433560894E+00
     &END COORD
     &VELOCITY
           2.4353373553283615E-04   -1.2006097602554713E-04    8.6380096427773152E-05
           5.1311970178114980E-05   -1.2708266195755350E-06   -1.4048482609927536E-05
          -1.3298767757272329E-04   -8.3910828184582614E-05   -1.7227772179828391E-04
           3.2311111387078721E-04   -2.8974228281079042E-04    2.2815855771172395E-04
           3.6807112799603351E-04   -1.6540691871576671E-04    8.2168021721656893E-05
           8.6843810078941720E-05   -1.6733145785203244E-04    2.3233906169847901E-04
          -1.9144732815693798E-04    3.6490306372520775E-05    1.7692428816831933E-04
          -2.7339212137220608E-04   -2.0181330320694895E-06   -2.5185283188636275E-04
          -2.9114797156598902E-04    1.4202524656989143E-04   -9.4207613532623050E-05
           4.9604684383325891E-05    1.9764986075636239E-04   -3.9675655901463177E-05
          -1.0338266296096555E-04    2.5533554886952999E-04   -1.7753567723223179E-04
           1.2393271803082698E-04   -5.1522817961723330E-05    2.4869105054814395E-04
           3.7171385611540278E-05    1.3912087635281281E-04   -2.6001104941503450E-04
          -9.0584380440375382E-05   -5.4256969622832943E-05    1.3571849163685916E-04
          -1.3532069033585602E-05    2.9312535024641773E-04   -1.1035216194649467E-04
           3.4365663856446706E-04    1.2592891247391612E-04    1.2984947778343911E-04
           3.1061310688394052E-05   -2.1491061234651888E-04    1.3642911352129946E-04
          -1.1197980598256044E-04    8.8708519144015216E-05    8.1551359030962071E-05
           7.2553977153009110E-05   -7.4882564047582084E-05   -3.7593240426676795E-05
          -3.9311008769553148E-05    7.7794970777289197E-05   -4.9503853884395662E-05
           1.3050850736020446E-04    3.2997372837769863E-05    2.3384938882167424E-04
          -2.3506710107381730E-04   -1.3038351983311761E-04   -7.8872779759926943E-05
           2.2656471395684341E-04    3.8984618353269214E-06   -1.0674489560219815E-04
          -4.8910812396792721E-04   -8.8250996375656939E-05    4.1168871693610085E-05
          -2.3516505104391331E-04    3.0141522873174731E-05   -4.3307021529727007E-05
           2.3874077440464393E-04    1.6479626533156123E-04   -6.5961174431095952E-06
           2.1570400442136639E-06   -3.6687604473955795E-04    1.9056449024892970E-05
           1.5263290745945796E-04   -4.5423683353720115E-05   -4.7828240981469951E-05
          -2.4361660473978418E-04   -1.5799538490196305E-04    1.4701044899722779E-04
          -4.6332302280432398E-05    6.6958418738944972E-05   -1.4093723621048902E-04
           7.0402526347068748E-05    1.4787938508561063E-04    2.3294646136764064E-04
          -1.0541845847345587E-04    9.0959878371456822E-05    1.4239486316665841E-04
           3.9447066267678086E-04    6.7697585283122070E-05    1.1078543439868478E-04
          -7.7642050405955885E-05   -1.2536442817891457E-04   -1.9896428319814504E-04
           4.0834731830732542E-04    1.4767279245106845E-04    2.0697580190158051E-05
          -2.3059415805062915E-04   -1.2069261926191179E-04    1.1528847271963786E-04
          -2.2453224223048857E-04    3.2508315209512918E-04   -1.1011175869213633E-04
          -2.5223464557442681E-05    3.9102949516746214E-04    1.6353834116193040E-04
           2.2717843313713406E-05   -6.2765751654765151E-06    4.4671040024724440E-05
          -2.2749659830903111E-04   -6.9576305490559735E-06    6.3788388338203913E-05
          -7.5841302720123729E-05    8.7087799014441106E-05   -2.6939094015517262E-04
          -1.5166914071641110E-04   -1.6482446184578012E-04   -8.8619423398429679E-05
           8.3255811691629032E-06   -5.3065384629014024E-05   -7.5044278378543221E-05
           6.6403553282888412E-05    1.1865592146503085E-04   -1.6876922794150916E-04
          -3.6854176965759380E-04   -4.4916679521623398E-04   -7.2212204722731652E-05
          -1.2514834926199571E-04   -2.1658705550738850E-04    1.4279407553150826E-05
           1.5301292386829741E-04    7.8212466736861144E-05   -2.6042789655565982E-04
           1.1597437780919110E-04    1.3153166326486412E-04    1.9714489346373357E-05
          -2.7586288468207349E-05    4.9135802993588407E-05   -8.2847135187272660E-05
           1.7533037836792417E-04   -1.0200057778807067E-04   -1.5955910869548067E-05
           9.1305293495539271E-06   -1.7063363096336056E-04   -1.2704533408530692E-04
           2.0532414019991022E-04   -1.8523108331176393E-04    1.5576953260096644E-04
          -9.5082342048973830E-05    3.8898283928700801E-04    6.8143354601153455E-05
          -3.3468517686330875E-05    1.1413973593900823E-04    4.8372670608955672E-05
          -3.2167308794405278E-04   -6.7373694362569768E-05   -3.3440505798280597E-04
          -1.0565699375642717E-04   -1.8612919959458700E-04   -4.1185047195582660E-05
           3.0227443463947849E-04   -1.9476822908263661E-08   -4.0898192668537700E-05
           3.4132859750909359E-04   -7.5666618759133832E-05    3.1369871723578135E-04
           4.8774504481617309E-06    9.5432986768970249E-05    4.0463993791600379E-05
          -7.3525642131838951E-05   -1.1023344657337179E-04   -1.6990266178300406E-04
          -9.5305467321993179E-05    1.5924492797655327E-04    1.0050784054950942E-04
           2.9577992716515555E-04   -2.0302338272581080E-04   -3.8000268564325171E-06
           3.3426751496565648E-05    2.9960856877199984E-05    2.2957098673433462E-05
           2.1247046209751981E-04   -1.8773508816469209E-04   -7.1323934920802825E-05
          -4.5158839414194684E-04   -3.6143060086007441E-05   -6.1976176342572274E-04
           9.6706711088424358E-04   -4.1494673939066623E-04   -1.4270244721726300E-03
           7.4657709737673927E-04    7.4979183339905504E-04   -2.9716006604973212E-05
           1.1944835029766353E-03   -2.4887952170183020E-04   -4.6965328169479872E-04
           3.3415678176796151E-04   -4.4057529884786016E-04   -4.5347033641385888E-04
           1.1012796129979000E-03    2.9083917953713151E-04   -1.2194190254910771E-03
           2.2415342343614988E-04    1.5937251548064433E-03   -3.7781211910864969E-04
           1.0073465758304340E-03   -6.8157982680442145E-04    2.6183752025961448E-04
          -6.9769183542437937E-05    2.4841597086563082E-05   -1.3349984291721989E-04
          -6.5395783739516974E-04   -1.1729839039400841E-04    1.7209949833616410E-04
          -6.3912725033424538E-04   -9.4833908161168245E-04   -2.5753189731464476E-04
          -3.9187509730193975E-04   -2.4417797176920085E-04   -5.0822500048188228E-04
           2.8904185310235647E-04   -2.0455475311661826E-03   -7.4488003308373493E-04
           3.8533435934042003E-04   -1.5649598638725754E-03   -8.1999331592061571E-04
           6.6163782210295707E-04   -2.0530137991063411E-04   -4.7022778537331302E-04
          -4.8571775199550052E-05   -1.4283455067348023E-03    8.4970777265509008E-04
          -5.1040502071552567E-04    9.0124041076603727E-04   -4.3717828655738457E-04
           2.7962496775342071E-04    1.1112791909682841E-04   -5.6980553870898080E-04
          -1.5080494509692852E-03    7.3672779721920207E-04   -5.7541529118501736E-06
           2.4475429621903560E-04    9.7437756643644214E-04   -4.8339679945664745E-04
          -8.5981680084330474E-05    5.9512037269669586E-04   -4.8949501762969575E-05
          -6.8266467564089364E-04   -5.5567223334783682E-04    7.1350489603320944E-04
           4.8033714473141829E-05    6.5011279409677423E-04   -7.7943973950214825E-04
           8.0491911126129255E-05   -7.8343749756293552E-04    7.2435736497541579E-04
           2.5839724569397526E-04    7.5578985206410472E-05   -5.8507007759641891E-04
           3.2468632067485616E-04   -2.7324024726444699E-04    2.5249479693606198E-04
          -1.0539062839355212E-03    5.0616494373529946E-04    7.1049452486344209E-04
           8.0541579377650684E-04   -1.4428395474254952E-04   -9.1111624630442337E-04
          -9.3901405516936729E-05   -1.7440336409563646E-04   -6.6695306718916989E-04
          -5.9667439631389972E-04    2.1020879938469898E-03   -1.6524975841903029E-04
          -5.9413689338872746E-04   -1.8314218672476238E-04   -3.0878549943045782E-04
          -1.1299139621174872E-04   -1.9706794254468170E-04    5.4164798336738625E-04
           3.7379192865731018E-04   -2.2187500988147163E-04   -3.6215118742761326E-04
          -5.2111287107506126E-04    8.9091209793041258E-04   -5.6207250899528434E-04
           6.7919292602279481E-04    1.3343181456773140E-04   -5.4958333089665965E-04
          -5.0955912341467852E-05   -7.8811310901394881E-04    5.3306738435836211E-04
          -8.4615276362617648E-05   -4.3969810880434566E-04   -1.5061331385261344E-03
           1.9621493945422432E-04    7.0658921104184631E-04    7.9834173947849465E-04
          -3.1086266729340236E-04    7.4710976671377464E-04    4.9983161018154966E-04
          -7.7088036735672191E-04    8.7923123996069808E-04    4.4906439901280337E-04
           4.7843808738253190E-04    2.0885304149466971E-04    9.9081078439343037E-04
           2.7383478092757676E-04   -1.2076470147057523E-05    2.0312636572858865E-03
           2.2238602224315635E-04    4.5732113703929442E-04    2.0297495633720942E-03
          -1.3983314820564875E-04    6.4110517559016220E-04    2.3541721874380863E-04
           1.0634351964528366E-03   -8.1406755448137946E-04    2.5592615932255365E-04
           5.5764666823131161E-04   -2.4944020397569102E-04    1.0095491375944747E-03
           8.2355304836956604E-04    4.6265598283912001E-04    1.0873683440576318E-03
           1.0554542732582545E-03    1.4711843503812830E-03   -1.9257994643056073E-04
          -5.9301436638347521E-04    1.4338243179380134E-03   -1.0518598720279356E-03
           1.7009542630508459E-04   -2.7229621441173023E-04   -1.8275874432466724E-04
          -3.9794180045577053E-04    1.1377334676094628E-03    1.5111872074092576E-04
          -2.1010779018170415E-04    2.5908254733830554E-04    1.2965840741272028E-03
           5.7014687397095138E-04    4.3663748722763473E-04   -1.4622705924975516E-04
           2.7451658006007130E-04   -1.1055104188253590E-04   -2.7011911346919344E-04
          -1.5488517943830671E-03   -4.8268639176836240E-04    1.0661735519786086E-03
           1.1223093818492444E-04    6.1336181166335305E-04   -2.4337739021030626E-04
          -8.4642821009529314E-04    2.7314900747819079E-04    4.4966165017410912E-04
          -9.0281864259199047E-04    4.6471968391135338E-04   -2.6632644267366291E-04
          -1.1909602595115206E-03    3.2546725719713893E-05   -5.5177771585443504E-05
           2.6878284878611991E-04   -1.1019214430812439E-03    6.7804196597151187E-04
           3.1926309392042284E-04    1.0177813137834286E-03   -3.0847823993140552E-04
          -4.2284471692028092E-04    4.3959034012438814E-04   -8.2960000477686250E-04
           4.5763012015244848E-04   -7.2873611064333034E-04   -1.9810871958016684E-04
          -2.5435809609082653E-04   -2.9857092394482501E-04    4.0812967129098306E-04
          -1.7369381695502942E-04    6.5701533358446967E-04    1.2674523034613314E-03
           2.5615963331556611E-04   -1.0911306586707523E-06    1.1679000472540320E-03
          -1.6308109779195480E-05    1.3149337650841004E-03    1.0407917757299151E-03
           8.9763869715962341E-04   -3.3652501427882639E-04    5.8254652394271861E-04
           1.0486726919102898E-03    1.4387708621610779E-04   -1.3227328924856792E-03
          -7.1280006662670066E-04    3.7576614692502145E-04   -7.8229807968834106E-04
          -4.9597517504587678E-05    2.0943390448575075E-05   -3.3577883352602729E-04