 # Version information for this restart file 
 # current date 2023-07-27 11:09:34.068
 # current working dir /mnt/lustre/indy2lfs/work/tc047/tc047/mrnuff-cirrus/cp2k/nuff-benchmarks/H2O-64-1node
 # Program compiled at                              Thu Jun 30 12:29:55 BST 2022
 # Program compiled on                                             cirrus-login3
 # Program compiled for                                             Cirrus-intel
 # Source code revision number                                       git:e635599
 &GLOBAL
   PRINT_LEVEL  LOW
   PROJECT_NAME H2O-64
   RUN_TYPE  MD
 &END GLOBAL
 &MOTION
   &MD
     ENSEMBLE  NVE
     STEPS  10
     TIMESTEP     4.9999999999999994E-01
     STEP_START_VAL  10
     TIME_START_VAL     4.9999999999999982E+00
     ECONS_START_VAL    -1.1007588181100839E+03
     TEMPERATURE     3.0000000000000000E+02
     &AVERAGES  T
       &RESTART_AVERAGES
         ITIMES_START  1
         AVECPU     1.5793563359929248E+01
         AVEHUGONIOT     0.0000000000000000E+00
         AVETEMP_BARO     0.0000000000000000E+00
         AVEPOT    -1.1010668160173025E+03
         AVEKIN     3.0070034549331232E-01
         AVETEMP     3.3142598856001490E+02
         AVEKIN_QM     0.0000000000000000E+00
         AVETEMP_QM     0.0000000000000000E+00
         AVEVOL     1.2909542132085598E+04
         AVECELL_A     2.3458682268415796E+01
         AVECELL_B     2.3458682268415796E+01
         AVECELL_C     2.3458682268415796E+01
         AVEALPHA     9.0000000000000000E+01
         AVEBETA     9.0000000000000000E+01
         AVEGAMMA     9.0000000000000000E+01
         AVE_ECONS    -1.0896372738060586E+01
         AVE_PRESS     0.0000000000000000E+00
         AVE_PXX     0.0000000000000000E+00
       &END RESTART_AVERAGES
     &END AVERAGES
   &END MD
 &END MOTION
 &FORCE_EVAL
   METHOD  QS
   &DFT
     BASIS_SET_FILE_NAME GTH_BASIS_SETS
     POTENTIAL_FILE_NAME POTENTIAL
     &SCF
       SCF_GUESS  ATOMIC
       &OT  T
         MINIMIZER  DIIS
       &END OT
       &PRINT
         &RESTART  OFF
         &END RESTART
       &END PRINT
     &END SCF
     &QS
       EPS_DEFAULT     9.9999999999999998E-13
       EXTRAPOLATION  PS
       EXTRAPOLATION_ORDER  3
     &END QS
     &MGRID
       CUTOFF     2.8000000000000000E+02
       REL_CUTOFF     3.0000000000000000E+01
     &END MGRID
     &XC
       DENSITY_CUTOFF     1.0000000000000000E-10
       GRADIENT_CUTOFF     1.0000000000000000E-10
       TAU_CUTOFF     1.0000000000000000E-10
       &XC_FUNCTIONAL  NO_SHORTCUT
         &PADE  T
         &END PADE
       &END XC_FUNCTIONAL
     &END XC
   &END DFT
   &SUBSYS
     &CELL
       A     1.2413800000000002E+01    0.0000000000000000E+00    0.0000000000000000E+00
       B     0.0000000000000000E+00    1.2413800000000002E+01    0.0000000000000000E+00
       C     0.0000000000000000E+00    0.0000000000000000E+00    1.2413800000000002E+01
       MULTIPLE_UNIT_CELL  1 1 1
     &END CELL
     &COORD
O    1.2265692089483846E+01    1.3554390129941858E+00    1.0875425741210449E+01
O    6.4523125712782621E+00    3.7059030017229864E+00    8.6472703373292887E+00
O    7.7679434805471320E-02    2.1684363409617635E+00    8.2608499727948352E+00
O    1.2086328917682273E+01    2.6383236471456724E+00    2.1708319631148041E+00
O    1.2290563434792507E+01    4.1705987030844955E+00    1.2102197401501016E+01
O    7.2035546534507606E+00    9.4146440982929669E-01    4.7596753308529642E+00
O    8.3332259924710161E+00    7.2077559238207733E+00    4.6827252174468592E+00
O    1.2331820354972875E+01    1.1521085584601190E+01    8.0815267568454843E+00
O    3.2742305248728809E+00    4.4591006237002642E+00    9.1745323461747645E+00
O    2.8601657947011692E+00    3.7871321994318548E+00    6.5410904120530819E+00
O    1.3797135980522226E+00    6.3917883108530047E+00    5.6509499049341894E-01
O    1.8717778176467539E+00    8.6859327223320992E+00    2.0908475002934357E+00
O    3.7724126920716250E+00    1.2107291686118607E+01    8.6205990989001435E+00
O    6.4253612010425361E+00    3.6667844669336027E+00    2.7875787966086150E+00
O    1.9996801569167464E+00    1.8525818618606753E+00    4.8671305057775847E+00
O    8.2870264289442765E+00    2.4221945186201599E+00    6.9417301194041929E+00
O    5.7524965525743381E+00    3.3354063225406185E+00    1.2486444073906735E+01
O    1.1313041873263987E+01    5.6568394091370546E+00    2.2481538681309736E+00
O    4.2889086332745592E+00    2.1146774663677363E+00    1.0586400462686862E+01
O    5.3988008779578989E+00    3.3584215761666316E+00    5.4859980676065971E+00
O    6.5093803283315337E+00    1.1870555907452573E+01    7.1448610258288392E-01
O    3.2525927590517369E+00    2.3434818290720991E+00    2.4132514479859832E+00
O    8.0086796499285562E+00    6.3565335203087399E+00    7.4977752039611074E+00
O    5.9288585788256363E+00    6.5082801666041989E+00    1.2195796701642523E+01
O    1.0610385294795657E+01    1.1861264429738501E+01    1.2200574174939899E+01
O    9.3403690756568061E+00    3.6890996107164571E+00    3.5273423653475326E+00
O    1.1111278086578420E+00    5.7890355206451876E+00    6.6473009501981526E+00
O    8.0194995343334750E+00    3.3269739508473060E+00    1.0869758841489826E+01
O    1.2376084676796186E+01    9.6748049821028381E+00    1.1772442429127560E+01
O    4.2098962719503286E+00    7.0914037241391403E+00    8.1403049780540595E+00
O    3.7839656891274394E+00    8.2290488153630150E+00    1.1585038748792675E+01
O    1.1076296436002842E+01    4.5429033328726272E+00    7.8327522122958113E+00
O    1.0435269965490429E+01    8.4217711221835270E+00    1.0328413587523251E+00
O    1.9828015281273736E+00    6.4005825276164536E+00    1.0353823655978500E+01
O    4.7041682767468673E+00    5.6227133611205327E-01    5.6097237226911298E+00
O    8.7178718108892959E+00    1.2242115811187329E+01    8.0976567639232258E+00
O    2.6327341025094788E+00    1.0520521873272733E+01    8.2905623926758487E-02
O    7.2399931187466073E+00    1.0511642196931648E+01    4.2432664330030212E+00
O    2.2807064781618926E+00    2.7612056427333426E-01    1.0807250569989241E+01
O    8.8632061138829243E+00    9.4642072500216512E-01    1.3400856795972429E+00
O    1.9443088048743737E+00    8.0893935868694999E+00    7.5355059867712324E+00
O    9.6598248299587866E+00    8.0355046451627210E+00    9.8565400345211547E+00
O    1.0903669851584372E+01    8.3307153998976489E+00    6.4773146916028423E+00
O    3.5124567442237487E+00    4.8693650210821726E+00    1.5451764009707949E+00
O    7.9775830453592080E+00    8.6026723333304407E+00    1.2050849513770656E+01
O    8.3694035479504496E+00    1.0019371052443084E+01    6.6836141760227807E+00
O    5.6546743218578994E+00    6.0810664230945433E+00    5.5283846573828175E+00
O    1.1742547847645337E+01    1.6241840639033749E+00    5.0859575162073156E+00
O    9.7585719615143312E+00    9.8110347715520660E+00    3.5364867774940807E+00
O    3.9627876574399687E+00    1.0548914651573970E+01    4.6848634346390101E+00
O    9.0110847254977111E-01    6.3699180308684618E+00    4.0614677068442653E+00
O    6.8825857356122384E+00    6.4084220847945739E+00    2.5046902581441497E+00
O    3.8180799995398709E+00    6.6391276583279950E+00    3.7786506828597330E+00
O    6.5639457974901561E+00    8.3081696931558984E+00    8.8142644496197420E+00
O    9.7792965800925220E+00    1.3440562766333000E-01    3.8518038249084743E+00
O    4.1040770115657077E+00    1.1645978558721383E+01    2.2167390496173640E+00
O    5.3225394392112415E+00    8.7370879819811638E+00    2.7520568939069237E+00
O    1.0008064086737262E+01    5.3735087324373749E+00    5.3757728940149443E+00
O    1.2260297782908829E+01    8.6464340629358407E+00    3.9709777917871056E+00
O    2.3431345497117269E+00    1.0747243885368677E+01    6.8128217267251143E+00
O    7.0016612916654184E+00    6.6240597665991041E-01    1.0534341561687940E+01
O    5.1725047982212393E+00    1.0218495319125291E+01    1.0357205957141307E+01
O    1.1186316801594378E+01    5.8851524495734688E+00    1.0299193203865947E+01
O    1.2277001782589711E+01    8.9569716794261875E+00    9.0707884188586760E+00
H    1.2357840653884180E+01    2.3335995753228294E+00    1.1187202568865974E+01
H    1.1946181003855656E+01    1.5338243304136940E+00    9.8820686313882380E+00
H    5.5871540557006840E+00    3.4492983737416489E+00    9.0442905792553425E+00
H    6.8930493554881345E+00    3.0239782285791481E+00    7.9852283560211026E+00
H   -1.4374297116926532E-01    1.5098214846057969E+00    7.5263531243330393E+00
H   -3.8865416711582434E-01    3.0530974755008669E+00    7.9298823362656368E+00
H    1.2176354233154278E+01    2.9746344065077932E+00    1.1924463434418542E+00
H    1.2991627169715096E+01    2.9143170210552118E+00    2.5155346727349115E+00
H    1.1517585159653301E+01    4.3255122446516650E+00    1.1434691026735502E+01
H    1.2784953658522339E+01    5.0635466714145485E+00    1.2040055000816068E+01
H    6.9671401310535366E+00    1.7387343976985574E+00    4.1849967664917225E+00
H    6.2296009063342144E+00    6.8946782722623967E-01    5.1579113656945719E+00
H    7.7273594948730295E+00    7.2216808380982718E+00    5.4888761780282094E+00
H    9.1691701765459808E+00    6.6296086344976448E+00    4.9460727574875945E+00
H    1.2846883768257316E+01    1.1781070688350660E+01    8.9005192602387826E+00
H    1.1983330930255073E+01    1.0563456761595781E+01    8.3168613221537129E+00
H    3.5249173108186875E+00    3.8402074967248074E+00    9.9510006399904736E+00
H    2.4297337650179278E+00    4.9330989925201729E+00    9.5245628999127927E+00
H    2.1731627523299468E+00    4.5583640086444488E+00    6.3013579985293440E+00
H    2.8563500932216215E+00    3.8576048156122047E+00    7.5841394106042772E+00
H    1.1402120515026510E+00    7.1967347480537169E+00    1.1594244541631706E+00
H    2.2451038169247792E+00    6.0044688738679382E+00    1.0028737587413747E+00
H    2.8159635337994042E+00    8.9701748198784550E+00    2.2995199891603924E+00
H    1.3289544665066717E+00    8.9939926467767730E+00    2.8983257079445308E+00
H    4.4550218369062415E+00    1.1540339425003772E+01    9.1644203320317601E+00
H    3.0505860859908274E+00    1.2474023132570474E+01    9.2862357274708369E+00
H    5.8591510063950620E+00    3.4580809397756882E+00    3.6616773633304041E+00
H    5.8328342793247527E+00    3.4003555439701438E+00    1.9823495664216868E+00
H    9.5573469725967286E-01    1.6451477306434561E+00    4.8407733836333922E+00
H    2.2282991647309234E+00    2.4813299829878903E+00    5.6872650230023618E+00
H    8.4431290012367501E+00    1.6050270153558730E+00    7.5442513472481529E+00
H    8.0660702671742843E+00    2.0137128293837376E+00    6.0338191030228616E+00
H    5.2179579256213282E+00    2.8944435585806474E+00    1.1676379626020363E+01
H    6.6808372388708870E+00    3.4137338960719403E+00    1.1974227321955118E+01
H    1.0787628803145477E+01    6.5181395670626312E+00    2.0987991922628955E+00
H    1.1679773573100952E+01    5.3602522151475096E+00    1.3423877172508858E+00
H    3.4353203684187830E+00    1.5422281194350234E+00    1.0899348788954716E+01
H    4.8360131199373804E+00    1.4266306188293456E+00    1.0089887937303299E+01
H    4.3860802582005931E+00    3.3639520802573948E+00    5.6883523933785858E+00
H    5.6851424648156126E+00    4.3694414775809740E+00    5.5473743673647933E+00
H    6.2905172776227198E+00    1.1824099733749401E+01    1.7188529435634505E+00
H    5.6254822935024658E+00    1.2118652077615838E+01    3.2827489265258020E-01
H    3.5448338646073143E+00    1.3905272139794875E+00    2.1815170599099236E+00
H    2.6082617908447259E+00    2.2011793681999468E+00    3.2448585926830664E+00
H    7.1214310944132624E+00    5.8746986475786631E+00    7.5240902705269406E+00
H    8.6555160452207716E+00    5.7349833608740184E+00    7.0296645633641264E+00
H    6.0004465275663872E+00    5.6511979030147135E+00    1.1673025686979427E+01
H    6.2576534574149330E+00    6.3249880564331988E+00    1.3168261180251752E+01
H    1.1110393485508158E+01    1.2636559250997674E+01    1.1695509562619105E+01
H    1.0264574453193388E+01    1.2297166054267027E+01    1.3044673119309925E+01
H    9.9063257583762496E+00    4.0523254539290718E+00    2.7328096710816103E+00
H    8.5320976562310804E+00    3.4662435851510867E+00    2.9418258347991633E+00
H    1.4549325922359067E+00    6.6684406032654779E+00    7.1063381287429506E+00
H    1.0013233336709904E+00    6.1758231958590244E+00    5.6553319488925649E+00
H    7.9834584102617070E+00    3.6965662970355675E+00    9.9295362401114176E+00
H    8.0702893407908611E+00    2.3148727995365626E+00    1.0750118168091076E+01
H    1.1741851247337818E+01    1.0457041172522604E+01    1.2099135806994049E+01
H    1.2145140467198178E+01    8.9346530857756896E+00    1.2412210742862326E+01
H    3.3373535314761873E+00    7.6121200308661043E+00    7.8531045761947418E+00
H    3.8438071109322154E+00    6.2417161568838209E+00    8.6114175129821167E+00
H    3.1132077807644709E+00    7.6196920981176435E+00    1.1070308623800081E+01
H    4.4752997918980437E+00    7.6309327249728627E+00    1.2076616644958881E+01
H    1.1595109347939024E+01    4.9846383472196285E+00    7.0588447442728706E+00
H    1.0300198428128706E+01    4.1359917521745437E+00    7.3179795841162685E+00
H    1.0066803629045060E+01    8.9449101926884271E+00    1.8648409458420137E+00
H    9.5721275817988776E+00    8.2654871620118495E+00    4.9820470823264096E-01
H    1.3188214514381826E+00    6.6901027276287648E+00    9.6503048603170232E+00
H    1.4021624816960381E+00    6.4512365186866836E+00    1.1227722789147125E+01
H    4.1225373888741634E+00    1.3301382656581064E+00    5.2661059713502096E+00
H    4.6863100279910350E+00    6.4323888153904896E-01    6.6181558656211781E+00
H    9.4703533710560404E+00    1.2334177792059890E+01    8.7409520154269842E+00
H    8.8486737260991859E+00    1.1353175343936526E+01    7.5414016813710383E+00
H    1.7346635260611658E+00    1.0023247752457154E+01    1.4531246290787755E-01
H    3.3374323737188765E+00    9.8445600332824910E+00   -2.3573946363466231E-01
H    7.0505799823408903E+00    1.1506005604268289E+01    4.1255571139609799E+00
H    6.4716019298294869E+00    9.9354966266942153E+00    3.7910911532787019E+00
H    1.3268589592362869E+00    5.8377393430140789E-01    1.1128929736798929E+01
H    2.5223619020799442E+00   -5.4513600115448735E-01    1.1460522258350499E+01
H    8.7695024945574396E+00    1.8730405160136125E+00    9.9029984538912408E-01
H    8.0908940305269184E+00    3.3984351975167659E-01    9.9164118000020041E-01
H    1.1203607709238763E+00    8.3716512006958705E+00    8.1792323344824975E+00
H    2.0883187077771592E+00    8.9941496096238946E+00    7.0138877035400453E+00
H    8.9092455661180594E+00    7.7938840102053257E+00    9.2222118549470622E+00
H    9.0650442925876487E+00    8.4492400512121577E+00    1.0614283870982025E+01
H    1.0125293357176441E+01    7.6972294325251269E+00    6.4507709233866857E+00
H    1.0499855152536911E+01    9.1992705817145630E+00    6.1555311709835330E+00
H    3.4971231604227202E+00    3.9586904012080146E+00    2.1122844778207863E+00
H    4.0584146620664132E+00    4.5845739999393738E+00    7.4299547661123666E-01
H    7.3547300979713750E+00    9.3907717765821435E+00    1.2034662471094224E+01
H    7.3341917810683119E+00    7.7711469163734810E+00    1.2054219542750033E+01
H    7.8271815569082426E+00    1.0161811172290523E+01    5.7814619639484439E+00
H    7.7120113817881721E+00    9.5092512996366487E+00    7.2843726304680292E+00
H    5.2899463871870278E+00    6.4889429596069688E+00    6.3929757321025349E+00
H    4.8678252868831997E+00    6.3175211180853381E+00    4.8313586361441754E+00
H    1.1521862541305468E+01    2.1923283626801235E+00    4.2496614328179545E+00
H    1.1222791846957525E+01    7.8414795598408615E-01    4.7829538343866504E+00
H    8.8119942350210270E+00    9.6778779613704096E+00    3.9666686831530824E+00
H    9.9342844970885391E+00    1.0814156988790183E+01    3.7816372858611853E+00
H    3.1082289528958267E+00    1.0546326407174430E+01    5.2868803913858526E+00
H    4.3132584907107070E+00    1.1455620653057744E+01    5.0610780320735564E+00
H    4.2220406784311004E-01    7.3045102192441380E+00    3.8013135649932108E+00
H    2.9772343931232770E-01    5.7724401932039164E+00    3.4526995513602006E+00
H    7.5860591209733776E+00    6.5678847601543433E+00    3.2915836809340213E+00
H    6.6758385347282685E+00    5.3831754309179392E+00    2.5200133494026695E+00
H    3.8532534172196682E+00    6.3060046348701722E+00    2.8123783749705606E+00
H    2.7953246440736068E+00    6.5485847389776701E+00    3.9537741358610754E+00
H    5.5553176437610903E+00    8.0120599991635526E+00    8.6583941104710149E+00
H    6.9993930795497938E+00    7.4780238970675459E+00    8.4104344163933416E+00
H    9.5571588990614131E+00    7.3280446145754119E-01    3.0174818797267586E+00
H    8.9237164310790007E+00    1.3437510586234136E-01    4.4076447871975031E+00
H    3.8482457315685021E+00    1.1174438455170796E+01    1.3441470566656242E+00
H    3.9626056228588635E+00    1.0964278466897067E+01    3.0102551897946594E+00
H    5.9449661422365603E+00    7.8891857853086105E+00    2.7995741535959326E+00
H    4.7652120121291892E+00    8.7229381074884564E+00    3.5906717261649050E+00
H    1.0905815782848858E+01    5.5302201800697572E+00    4.9342869455828007E+00
H    9.5033245323305966E+00    4.6732708376730958E+00    4.7171193166488159E+00
H    1.1491942104116619E+01    9.0018887406795631E+00    3.3983649908374631E+00
H    1.1959903629041079E+01    8.7851547644288672E+00    4.9401026898664844E+00
H    2.9404439844273287E+00    1.1333326721638588E+01    7.4881123877731772E+00
H    1.3993518978819963E+00    1.1120275827043031E+01    6.8063456551225139E+00
H    7.2181951384371805E+00    1.2809608485363988E-01    9.7032371258678705E+00
H    7.1648660378586930E+00    1.0772078745146997E-01    1.1367500988399804E+01
H    4.8113412051059505E+00    9.3237474535604736E+00    1.0837702423611869E+01
H    6.0816481698036204E+00    9.8060697913093708E+00    1.0186927365163644E+01
H    1.0565212262639619E+01    6.7306908548569933E+00    1.0314443980527557E+01
H    1.1239043366237770E+01    5.5938377372087427E+00    9.3143651163973633E+00
H    1.2188456954751331E+01    8.9927460848969858E+00    1.0127821223536714E+01
H    1.1415764242459161E+01    8.6329965781005136E+00    8.6365688433566756E+00
     &END COORD
     &VELOCITY
           2.4353373553026269E-04   -1.2006097602595826E-04    8.6380096427184959E-05
           5.1311970178461132E-05   -1.2708266198740028E-06   -1.4048482607197800E-05
          -1.3298767757299781E-04   -8.3910828184816016E-05   -1.7227772179832166E-04
           3.2311111387281759E-04   -2.8974228281203611E-04    2.2815855771148990E-04
           3.6807112799807452E-04   -1.6540691871853974E-04    8.2168021723174126E-05
           8.6843810077690740E-05   -1.6733145785137709E-04    2.3233906169733439E-04
          -1.9144732815499149E-04    3.6490306371390752E-05    1.7692428816603537E-04
          -2.7339212137229905E-04   -2.0181330311315030E-06   -2.5185283188738683E-04
          -2.9114797156633081E-04    1.4202524657023292E-04   -9.4207613532931424E-05
           4.9604684382474122E-05    1.9764986075664824E-04   -3.9675655903228027E-05
          -1.0338266296045573E-04    2.5533554886977464E-04   -1.7753567723106196E-04
           1.2393271803087149E-04   -5.1522817962265499E-05    2.4869105054709623E-04
           3.7171385612028081E-05    1.3912087635299235E-04   -2.6001104941350436E-04
          -9.0584380442692864E-05   -5.4256969623200230E-05    1.3571849163686507E-04
          -1.3532069033606453E-05    2.9312535024661045E-04   -1.1035216194572680E-04
           3.4365663856429277E-04    1.2592891247488288E-04    1.2984947778520975E-04
           3.1061310688923108E-05   -2.1491061234736743E-04    1.3642911352125720E-04
          -1.1197980598893773E-04    8.8708519144750658E-05    8.1551359030214093E-05
           7.2553977151183422E-05   -7.4882564047907752E-05   -3.7593240427848052E-05
          -3.9311008769708460E-05    7.7794970774794123E-05   -4.9503853884184216E-05
           1.3050850736193059E-04    3.2997372840344037E-05    2.3384938882128442E-04
          -2.3506710107588601E-04   -1.3038351983345588E-04   -7.8872779760450992E-05
           2.2656471395966253E-04    3.8984618359156288E-06   -1.0674489559801690E-04
          -4.8910812396744377E-04   -8.8250996373645472E-05    4.1168871694070993E-05
          -2.3516505104432932E-04    3.0141522874216396E-05   -4.3307021529483048E-05
           2.3874077440260902E-04    1.6479626533092055E-04   -6.5961174414838408E-06
           2.1570400441332271E-06   -3.6687604474085423E-04    1.9056449024570938E-05
           1.5263290745818456E-04   -4.5423683353291828E-05   -4.7828240980952820E-05
          -2.4361660474349025E-04   -1.5799538490357372E-04    1.4701044899541172E-04
          -4.6332302280168035E-05    6.6958418739896075E-05   -1.4093723621058082E-04
           7.0402526347345220E-05    1.4787938508709720E-04    2.3294646136706647E-04
          -1.0541845847202716E-04    9.0959878373993625E-05    1.4239486316712039E-04
           3.9447066267402005E-04    6.7697585284939992E-05    1.1078543439979961E-04
          -7.7642050400316353E-05   -1.2536442818153072E-04   -1.9896428319797228E-04
           4.0834731830692469E-04    1.4767279245020952E-04    2.0697580191258147E-05
          -2.3059415804978109E-04   -1.2069261926310326E-04    1.1528847271892898E-04
          -2.2453224222995021E-04    3.2508315209871648E-04   -1.1011175869226531E-04
          -2.5223464561396756E-05    3.9102949516707280E-04    1.6353834116221205E-04
           2.2717843313881925E-05   -6.2765751650653721E-06    4.4671040027383744E-05
          -2.2749659830949620E-04   -6.9576305494262734E-06    6.3788388338049197E-05
          -7.5841302719417859E-05    8.7087799013386313E-05   -2.6939094015327532E-04
          -1.5166914071905119E-04   -1.6482446184445094E-04   -8.8619423399283163E-05
           8.3255811675295289E-06   -5.3065384630532286E-05   -7.5044278374781636E-05
           6.6403553282558828E-05    1.1865592146481815E-04   -1.6876922794128391E-04
          -3.6854176965794074E-04   -4.4916679521476370E-04   -7.2212204720968387E-05
          -1.2514834926085236E-04   -2.1658705550442323E-04    1.4279407554921865E-05
           1.5301292386698387E-04    7.8212466736249926E-05   -2.6042789655554371E-04
           1.1597437780940240E-04    1.3153166326465007E-04    1.9714489345938043E-05
          -2.7586288467701958E-05    4.9135802992919827E-05   -8.2847135185963797E-05
           1.7533037836796507E-04   -1.0200057778678646E-04   -1.5955910868791030E-05
           9.1305293493373018E-06   -1.7063363096632048E-04   -1.2704533408508715E-04
           2.0532414020161489E-04   -1.8523108330979635E-04    1.5576953260115198E-04
          -9.5082342048529185E-05    3.8898283928625108E-04    6.8143354602117677E-05
          -3.3468517682218780E-05    1.1413973594231013E-04    4.8372670607346635E-05
          -3.2167308794389248E-04   -6.7373694362761902E-05   -3.3440505798353428E-04
          -1.0565699375589531E-04   -1.8612919959407097E-04   -4.1185047196226954E-05
           3.0227443463827887E-04   -1.9476823963218633E-08   -4.0898192669394931E-05
           3.4132859751102173E-04   -7.5666618757590755E-05    3.1369871723623411E-04
           4.8774504477395214E-06    9.5432986765904207E-05    4.0463993791394780E-05
          -7.3525642130852585E-05   -1.1023344657338965E-04   -1.6990266178682980E-04
          -9.5305467321775146E-05    1.5924492797673005E-04    1.0050784055007740E-04
           2.9577992716480302E-04   -2.0302338272350641E-04   -3.8000268541194116E-06
           3.3426751499300690E-05    2.9960856877179097E-05    2.2957098674451501E-05
           2.1247046209828881E-04   -1.8773508816427456E-04   -7.1323934922628771E-05
          -4.5158839413783267E-04   -3.6143060084085666E-05   -6.1976176342139091E-04
           9.6706711087991783E-04   -4.1494673938567814E-04   -1.4270244721887480E-03
           7.4657709738669658E-04    7.4979183340749241E-04   -2.9716006629108962E-05
           1.1944835029832565E-03   -2.4887952169330501E-04   -4.6965328168972081E-04
           3.3415678177688238E-04   -4.4057529885040689E-04   -4.5347033643304216E-04
           1.1012796129993875E-03    2.9083917954538327E-04   -1.2194190254898962E-03
           2.2415342342693118E-04    1.5937251548254986E-03   -3.7781211910621458E-04
           1.0073465758383376E-03   -6.8157982680570786E-04    2.6183752026052109E-04
          -6.9769183586490928E-05    2.4841597103284407E-05   -1.3349984295134821E-04
          -6.5395783737219550E-04   -1.1729839034894547E-04    1.7209949835991336E-04
          -6.3912725033939339E-04   -9.4833908162472540E-04   -2.5753189731973227E-04
          -3.9187509729503181E-04   -2.4417797176636816E-04   -5.0822500047895537E-04
           2.8904185308659808E-04   -2.0455475311537789E-03   -7.4488003305801960E-04
           3.8533435938244002E-04   -1.5649598638801988E-03   -8.1999331590637981E-04
           6.6163782210722720E-04   -2.0530137991648563E-04   -4.7022778535919460E-04
          -4.8571775208297815E-05   -1.4283455067368440E-03    8.4970777265070134E-04
          -5.1040502071895760E-04    9.0124041076819928E-04   -4.3717828656716624E-04
           2.7962496774922984E-04    1.1112791909845501E-04   -5.6980553870578251E-04
          -1.5080494509621145E-03    7.3672779722240317E-04   -5.7541529091210063E-06
           2.4475429621303898E-04    9.7437756643080310E-04   -4.8339679944827720E-04
          -8.5981680082663188E-05    5.9512037268390314E-04   -4.8949501762344275E-05
          -6.8266467564448961E-04   -5.5567223334218249E-04    7.1350489602641973E-04
           4.8033714486827632E-05    6.5011279411644036E-04   -7.7943973949954660E-04
           8.0491911109390108E-05   -7.8343749754209780E-04    7.2435736497970457E-04
           2.5839724570025165E-04    7.5578985197318515E-05   -5.8507007758786466E-04
           3.2468632066317410E-04   -2.7324024725457468E-04    2.5249479694117145E-04
          -1.0539062839298198E-03    5.0616494373786208E-04    7.1049452485874207E-04
           8.0541579377557389E-04   -1.4428395473602525E-04   -9.1111624629856228E-04
          -9.3901405512716580E-05   -1.7440336409726875E-04   -6.6695306718780498E-04
          -5.9667439631776599E-04    2.1020879938491929E-03   -1.6524975843251302E-04
          -5.9413689338714789E-04   -1.8314218672861910E-04   -3.0878549941874747E-04
          -1.1299139621646619E-04   -1.9706794255246844E-04    5.4164798335517347E-04
           3.7379192865944405E-04   -2.2187500988732442E-04   -3.6215118741969788E-04
          -5.2111287107693878E-04    8.9091209793234019E-04   -5.6207250899910019E-04
           6.7919292603876749E-04    1.3343181455675114E-04   -5.4958333089234377E-04
          -5.0955912348279759E-05   -7.8811310900385619E-04    5.3306738437624451E-04
          -8.4615276357393962E-05   -4.3969810880239188E-04   -1.5061331385194054E-03
           1.9621493944761237E-04    7.0658921104295729E-04    7.9834173947990271E-04
          -3.1086266728967894E-04    7.4710976671381465E-04    4.9983161017166922E-04
          -7.7088036735214322E-04    8.7923123996971257E-04    4.4906439901910703E-04
           4.7843808738118576E-04    2.0885304147195218E-04    9.9081078440324891E-04
           2.7383478091975191E-04   -1.2076470159784546E-05    2.0312636572873818E-03
           2.2238602224512329E-04    4.5732113704965288E-04    2.0297495633804282E-03
          -1.3983314820191977E-04    6.4110517558968862E-04    2.3541721874730158E-04
           1.0634351964351903E-03   -8.1406755448639823E-04    2.5592615930382573E-04
           5.5764666823935726E-04   -2.4944020396810453E-04    1.0095491375805305E-03
           8.2355304835930536E-04    4.6265598282562158E-04    1.0873683440551076E-03
           1.0554542732516667E-03    1.4711843503832684E-03   -1.9257994643752914E-04
          -5.9301436636521074E-04    1.4338243179508455E-03   -1.0518598720348695E-03
           1.7009542630450913E-04   -2.7229621441135678E-04   -1.8275874433174559E-04
          -3.9794180045323122E-04    1.1377334676069895E-03    1.5111872074680132E-04
          -2.1010779020054870E-04    2.5908254733535374E-04    1.2965840741101030E-03
           5.7014687398414536E-04    4.3663748723509984E-04   -1.4622705924548696E-04
           2.7451658006122690E-04   -1.1055104188495424E-04   -2.7011911346965054E-04
          -1.5488517943868991E-03   -4.8268639176898034E-04    1.0661735519890906E-03
           1.1223093817781850E-04    6.1336181166906213E-04   -2.4337739021495860E-04
          -8.4642821009258263E-04    2.7314900747899294E-04    4.4966165017702134E-04
          -9.0281864258739215E-04    4.6471968390419884E-04   -2.6632644266537609E-04
          -1.1909602595204958E-03    3.2546725728544733E-05   -5.5177771589319120E-05
           2.6878284877752414E-04   -1.1019214431010943E-03    6.7804196597269614E-04
           3.1926309389947475E-04    1.0177813137700873E-03   -3.0847823993124268E-04
          -4.2284471691658710E-04    4.3959034011850824E-04   -8.2960000476953774E-04
           4.5763012014355184E-04   -7.2873611064746657E-04   -1.9810871956361126E-04
          -2.5435809608361117E-04   -2.9857092395087345E-04    4.0812967128814028E-04
          -1.7369381694773856E-04    6.5701533356819742E-04    1.2674523034422133E-03
           2.5615963332690356E-04   -1.0911306549655117E-06    1.1679000472653159E-03
          -1.6308109829266294E-05    1.3149337651068944E-03    1.0407917756576285E-03
           8.9763869712253101E-04   -3.3652501426825878E-04    5.8254652399111534E-04
           1.0486726919042961E-03    1.4387708622462118E-04   -1.3227328924895116E-03
          -7.1280006662139339E-04    3.7576614693191589E-04   -7.8229807968163765E-04
          -4.9597517522039010E-05    2.0943390442676257E-05   -3.3577883354191166E-04