 # Version information for this restart file 
 # current date 2023-07-21 11:59:20.176
 # current working dir /mnt/lustre/indy2lfs/work/tc047/tc047/mrnuff-cirrus/cp2k
 # Program compiled at                              Thu Jun 30 12:29:55 BST 2022
 # Program compiled on                                             cirrus-login3
 # Program compiled for                                             Cirrus-intel
 # Source code revision number                                       git:e635599
 &GLOBAL
   PRINT_LEVEL  LOW
   PROJECT_NAME H2O-64
   RUN_TYPE  MD
 &END GLOBAL
 &MOTION
   &MD
     ENSEMBLE  NVE
     STEPS  10
     TIMESTEP     4.9999999999999994E-01
     STEP_START_VAL  10
     TIME_START_VAL     4.9999999999999982E+00
     ECONS_START_VAL    -1.1007588181104263E+03
     TEMPERATURE     3.0000000000000000E+02
     &AVERAGES  T
       &RESTART_AVERAGES
         ITIMES_START  1
         AVECPU     4.2589845556183716E+00
         AVEHUGONIOT     0.0000000000000000E+00
         AVETEMP_BARO     0.0000000000000000E+00
         AVEPOT    -1.1010668160173041E+03
         AVEKIN     3.0070034549323010E-01
         AVETEMP     3.3142598855992441E+02
         AVEKIN_QM     0.0000000000000000E+00
         AVETEMP_QM     0.0000000000000000E+00
         AVEVOL     1.2909542132085598E+04
         AVECELL_A     2.3458682268415796E+01
         AVECELL_B     2.3458682268415796E+01
         AVECELL_C     2.3458682268415796E+01
         AVEALPHA     9.0000000000000000E+01
         AVEBETA     9.0000000000000000E+01
         AVEGAMMA     9.0000000000000000E+01
         AVE_ECONS    -1.0896372233262372E+01
         AVE_PRESS     0.0000000000000000E+00
         AVE_PXX     0.0000000000000000E+00
       &END RESTART_AVERAGES
     &END AVERAGES
   &END MD
 &END MOTION
 &FORCE_EVAL
   METHOD  QS
   &DFT
     BASIS_SET_FILE_NAME GTH_BASIS_SETS
     POTENTIAL_FILE_NAME POTENTIAL
     &SCF
       SCF_GUESS  ATOMIC
       &OT  T
         MINIMIZER  DIIS
       &END OT
       &PRINT
         &RESTART  OFF
         &END RESTART
       &END PRINT
     &END SCF
     &QS
       EPS_DEFAULT     9.9999999999999998E-13
       EXTRAPOLATION  PS
       EXTRAPOLATION_ORDER  3
     &END QS
     &MGRID
       CUTOFF     2.8000000000000000E+02
       REL_CUTOFF     3.0000000000000000E+01
     &END MGRID
     &XC
       DENSITY_CUTOFF     1.0000000000000000E-10
       GRADIENT_CUTOFF     1.0000000000000000E-10
       TAU_CUTOFF     1.0000000000000000E-10
       &XC_FUNCTIONAL  NO_SHORTCUT
         &PADE  T
         &END PADE
       &END XC_FUNCTIONAL
     &END XC
   &END DFT
   &SUBSYS
     &CELL
       A     1.2413800000000002E+01    0.0000000000000000E+00    0.0000000000000000E+00
       B     0.0000000000000000E+00    1.2413800000000002E+01    0.0000000000000000E+00
       C     0.0000000000000000E+00    0.0000000000000000E+00    1.2413800000000002E+01
       MULTIPLE_UNIT_CELL  1 1 1
     &END CELL
     &COORD
O    1.2265692089483860E+01    1.3554390129941565E+00    1.0875425741210378E+01
O    6.4523125712781937E+00    3.7059030017228123E+00    8.6472703373292941E+00
O    7.7679434805448783E-02    2.1684363409616227E+00    8.2608499727948583E+00
O    1.2086328917682362E+01    2.6383236471456040E+00    2.1708319631148174E+00
O    1.2290563434792530E+01    4.1705987030844343E+00    1.2102197401500570E+01
O    7.2035546534508299E+00    9.4146440982942758E-01    4.7596753308530371E+00
O    8.3332259924709948E+00    7.2077559238208773E+00    4.6827252174468104E+00
O    1.2331820354972862E+01    1.1521085584601169E+01    8.0815267568454630E+00
O    3.2742305248729218E+00    4.4591006237004516E+00    9.1745323461748871E+00
O    2.8601657947011248E+00    3.7871321994318219E+00    6.5410904120532853E+00
O    1.3797135980521695E+00    6.3917883108528288E+00    5.6509499049342904E-01
O    1.8717778176469104E+00    8.6859327223317440E+00    2.0908475002935210E+00
O    3.7724126920716454E+00    1.2107291686118630E+01    8.6205990989002146E+00
O    6.4253612010425405E+00    3.6667844669334757E+00    2.7875787966085936E+00
O    1.9996801569167912E+00    1.8525818618605541E+00    4.8671305057774861E+00
O    8.2870264289443352E+00    2.4221945186202252E+00    6.9417301194039025E+00
O    5.7524965525743736E+00    3.3354063225407264E+00    1.2486444073906798E+01
O    1.1313041873263909E+01    5.6568394091371133E+00    2.2481538681309732E+00
O    4.2889086332743931E+00    2.1146774663677843E+00    1.0586400462686630E+01
O    5.3988008779578616E+00    3.3584215761665965E+00    5.4859980676066469E+00
O    6.5093803283317824E+00    1.1870555907452930E+01    7.1448610258287615E-01
O    3.2525927590516783E+00    2.3434818290720671E+00    2.4132514479858940E+00
O    8.0086796499284070E+00    6.3565335203085613E+00    7.4977752039614280E+00
O    5.9288585788258059E+00    6.5082801666042878E+00    1.2195796701642490E+01
O    1.0610385294795515E+01    1.1861264429738574E+01    1.2200574174939851E+01
O    9.3403690756568025E+00    3.6890996107164078E+00    3.5273423653475033E+00
O    1.1111278086577765E+00    5.7890355206451423E+00    6.6473009501982094E+00
O    8.0194995343336739E+00    3.3269739508473286E+00    1.0869758841489688E+01
O    1.2376084676796202E+01    9.6748049821027973E+00    1.1772442429127429E+01
O    4.2098962719504147E+00    7.0914037241392194E+00    8.1403049780540204E+00
O    3.7839656891276610E+00    8.2290488153629955E+00    1.1585038748792417E+01
O    1.1076296436002746E+01    4.5429033328727026E+00    7.8327522122959019E+00
O    1.0435269965490621E+01    8.4217711221836566E+00    1.0328413587522993E+00
O    1.9828015281270917E+00    6.4005825276162538E+00    1.0353823655978484E+01
O    4.7041682767469188E+00    5.6227133611208857E-01    5.6097237226911787E+00
O    8.7178718108893332E+00    1.2242115811187377E+01    8.0976567639231671E+00
O    2.6327341025095357E+00    1.0520521873272909E+01    8.2905623926707875E-02
O    7.2399931187465336E+00    1.0511642196931637E+01    4.2432664330031953E+00
O    2.2807064781619912E+00    2.7612056427347131E-01    1.0807250569989330E+01
O    8.8632061138828782E+00    9.4642072500205598E-01    1.3400856795969580E+00
O    1.9443088048744306E+00    8.0893935868696580E+00    7.5355059867712173E+00
O    9.6598248299587883E+00    8.0355046451625238E+00    9.8565400345209522E+00
O    1.0903669851584295E+01    8.3307153998975974E+00    6.4773146916028335E+00
O    3.5124567442237971E+00    4.8693650210822117E+00    1.5451764009707547E+00
O    7.9775830453593013E+00    8.6026723333305171E+00    1.2050849513770061E+01
O    8.3694035479504674E+00    1.0019371052443073E+01    6.6836141760228776E+00
O    5.6546743218575477E+00    6.0810664230944838E+00    5.5283846573827748E+00
O    1.1742547847645351E+01    1.6241840639034009E+00    5.0859575162073032E+00
O    9.7585719615141695E+00    9.8110347715518991E+00    3.5364867774940243E+00
O    3.9627876574400092E+00    1.0548914651573721E+01    4.6848634346389675E+00
O    9.0110847254967796E-01    6.3699180308686838E+00    4.0614677068441720E+00
O    6.8825857356122313E+00    6.4084220847945099E+00    2.5046902581440667E+00
O    3.8180799995398478E+00    6.6391276583280083E+00    3.7786506828598152E+00
O    6.5639457974899704E+00    8.3081696931560067E+00    8.8142644496195768E+00
O    9.7792965800926339E+00    1.3440562766332675E-01    3.8518038249084436E+00
O    4.1040770115658329E+00    1.1645978558721415E+01    2.2167390496173294E+00
O    5.3225394392111713E+00    8.7370879819812135E+00    2.7520568939068477E+00
O    1.0008064086737132E+01    5.3735087324373749E+00    5.3757728940149372E+00
O    1.2260297782908713E+01    8.6464340629359118E+00    3.9709777917872340E+00
O    2.3431345497116371E+00    1.0747243885368741E+01    6.8128217267251161E+00
O    7.0016612916653287E+00    6.6240597665992984E-01    1.0534341561687871E+01
O    5.1725047982212811E+00    1.0218495319125196E+01    1.0357205957141439E+01
O    1.1186316801594462E+01    5.8851524495734520E+00    1.0299193203865741E+01
O    1.2277001782589762E+01    8.9569716794260223E+00    9.0707884188587045E+00
H    1.2357840653884546E+01    2.3335995753223449E+00    1.1187202568867049E+01
H    1.1946181003856237E+01    1.5338243304143835E+00    9.8820686313878277E+00
H    5.5871540556995294E+00    3.4492983737426695E+00    9.0442905792537012E+00
H    6.8930493554903451E+00    3.0239782285796242E+00    7.9852283560217243E+00
H   -1.4374297116839391E-01    1.5098214846070166E+00    7.5263531243311323E+00
H   -3.8865416711522677E-01    3.0530974755006119E+00    7.9298823362640274E+00
H    1.2176354233152692E+01    2.9746344065105546E+00    1.1924463434420960E+00
H    1.2991627169715384E+01    2.9143170210546314E+00    2.5155346727351535E+00
H    1.1517585159651656E+01    4.3255122446516232E+00    1.1434691026735754E+01
H    1.2784953658522628E+01    5.0635466714146524E+00    1.2040055000820999E+01
H    6.9671401310520391E+00    1.7387343976969185E+00    4.1849967664898431E+00
H    6.2296009063342694E+00    6.8946782722659128E-01    5.1579113656951137E+00
H    7.7273594948733297E+00    7.2216808381001343E+00    5.4888761780281516E+00
H    9.1691701765473184E+00    6.6296086344994167E+00    4.9460727574882322E+00
H    1.2846883768257230E+01    1.1781070688348777E+01    8.9005192602395038E+00
H    1.1983330930253844E+01    1.0563456761596056E+01    8.3168613221528584E+00
H    3.5249173108183594E+00    3.8402074967240569E+00    9.9510006399902213E+00
H    2.4297337650180992E+00    4.9330989925197901E+00    9.5245628999134375E+00
H    2.1731627523313977E+00    4.5583640086454045E+00    6.3013579985289434E+00
H    2.8563500932206436E+00    3.8576048156108405E+00    7.5841394106043243E+00
H    1.1402120515026832E+00    7.1967347480527337E+00    1.1594244541639880E+00
H    2.2451038169254525E+00    6.0044688738684773E+00    1.0028737587402521E+00
H    2.8159635337990752E+00    8.9701748198811444E+00    2.2995199891604075E+00
H    1.3289544665059343E+00    8.9939926467785014E+00    2.8983257079432132E+00
H    4.4550218369063126E+00    1.1540339425003939E+01    9.1644203320319040E+00
H    3.0505860859906124E+00    1.2474023132571459E+01    9.2862357274698137E+00
H    5.8591510063953240E+00    3.4580809397754591E+00    3.6616773633306776E+00
H    5.8328342793244694E+00    3.4003555439708673E+00    1.9823495664215081E+00
H    9.5573469725960181E-01    1.6451477306436531E+00    4.8407733836344269E+00
H    2.2282991647302879E+00    2.4813299829890951E+00    5.6872650230015012E+00
H    8.4431290012359987E+00    1.6050270153561794E+00    7.5442513472485304E+00
H    8.0660702671727176E+00    2.0137128293827229E+00    6.0338191030232844E+00
H    5.2179579256213628E+00    2.8944435585793866E+00    1.1676379626020942E+01
H    6.6808372388708470E+00    3.4137338960723409E+00    1.1974227321955111E+01
H    1.0787628803146587E+01    6.5181395670636286E+00    2.0987991922633578E+00
H    1.1679773573101555E+01    5.3602522151472822E+00    1.3423877172513368E+00
H    3.4353203684198266E+00    1.5422281194348155E+00    1.0899348788957198E+01
H    4.8360131199371104E+00    1.4266306188286486E+00    1.0089887937303729E+01
H    4.3860802582003542E+00    3.3639520802576039E+00    5.6883523933768529E+00
H    5.6851424648159030E+00    4.3694414775811197E+00    5.5473743673653102E+00
H    6.2905172776229588E+00    1.1824099733746527E+01    1.7188529435633555E+00
H    5.6254822935021069E+00    1.2118652077614041E+01    3.2827489265248211E-01
H    3.5448338646084454E+00    1.3905272139790958E+00    2.1815170599109037E+00
H    2.6082617908452161E+00    2.2011793681997784E+00    3.2448585926835847E+00
H    7.1214310944127606E+00    5.8746986475789829E+00    7.5240902705241739E+00
H    8.6555160452210025E+00    5.7349833608756269E+00    7.0296645633627053E+00
H    6.0004465275644048E+00    5.6511979030141273E+00    1.1673025686980273E+01
H    6.2576534574141585E+00    6.3249880564332788E+00    1.3168261180251879E+01
H    1.1110393485509316E+01    1.2636559250997680E+01    1.1695509562619634E+01
H    1.0264574453193166E+01    1.2297166054267118E+01    1.3044673119309815E+01
H    9.9063257583772799E+00    4.0523254539285976E+00    2.7328096710822845E+00
H    8.5320976562310005E+00    3.4662435851515703E+00    2.9418258347988608E+00
H    1.4549325922379046E+00    6.6684406032652701E+00    7.1063381287420393E+00
H    1.0013233336712426E+00    6.1758231958588512E+00    5.6553319488927931E+00
H    7.9834584102599377E+00    3.6965662970359330E+00    9.9295362401112364E+00
H    8.0702893407898362E+00    2.3148727995363907E+00    1.0750118168090980E+01
H    1.1741851247338415E+01    1.0457041172522649E+01    1.2099135806994784E+01
H    1.2145140467200012E+01    8.9346530857761408E+00    1.2412210742863262E+01
H    3.3373535314761718E+00    7.6121200308662704E+00    7.8531045761947880E+00
H    3.8438071109319689E+00    6.2417161568828350E+00    8.6114175129812338E+00
H    3.1132077807629157E+00    7.6196920981179375E+00    1.1070308623802456E+01
H    4.4752997918972603E+00    7.6309327249732481E+00    1.2076616644960136E+01
H    1.1595109347938854E+01    4.9846383472196107E+00    7.0588447442735438E+00
H    1.0300198428129972E+01    4.1359917521738341E+00    7.3179795841149318E+00
H    1.0066803629045260E+01    8.9449101926875230E+00    1.8648409458419528E+00
H    9.5721275817980445E+00    8.2654871620117429E+00    4.9820470823375002E-01
H    1.3188214514397858E+00    6.6901027276301273E+00    9.6503048603157211E+00
H    1.4021624816977964E+00    6.4512365186889742E+00    1.1227722789147956E+01
H    4.1225373888738321E+00    1.3301382656578216E+00    5.2661059713500338E+00
H    4.6863100279912393E+00    6.4323888154001074E-01    6.6181558656210848E+00
H    9.4703533710558183E+00    1.2334177792059114E+01    8.7409520154268385E+00
H    8.8486737260982906E+00    1.1353175343935753E+01    7.5414016813720863E+00
H    1.7346635260619001E+00    1.0023247752455488E+01    1.4531246290883615E-01
H    3.3374323737187752E+00    9.8445600332826739E+00   -2.3573946363559733E-01
H    7.0505799823410289E+00    1.1506005604268157E+01    4.1255571139597311E+00
H    6.4716019298305811E+00    9.9354966266935918E+00    3.7910911532772116E+00
H    1.3268589592358071E+00    5.8377393429851387E-01    1.1128929736799837E+01
H    2.5223619020801400E+00   -5.4513600115554450E-01    1.1460522258349190E+01
H    8.7695024945573028E+00    1.8730405160141683E+00    9.9029984538941973E-01
H    8.0908940305255861E+00    3.3984351975140387E-01    9.9164118000372770E-01
H    1.1203607709250136E+00    8.3716512006963804E+00    8.1792323344824283E+00
H    2.0883187077763572E+00    8.9941496096233990E+00    7.0138877035392442E+00
H    8.9092455661168586E+00    7.7938840102088136E+00    9.2222118549483572E+00
H    9.0650442925884622E+00    8.4492400512115626E+00    1.0614283870982563E+01
H    1.0125293357174813E+01    7.6972294325269193E+00    6.4507709233859920E+00
H    1.0499855152539212E+01    9.1992705817146359E+00    6.1555311709810736E+00
H    3.4971231604225288E+00    3.9586904012079080E+00    2.1122844778210070E+00
H    4.0584146620668262E+00    4.5845739999386792E+00    7.4299547661164367E-01
H    7.3547300979708226E+00    9.3907717765816745E+00    1.2034662471096730E+01
H    7.3341917810682631E+00    7.7711469163740103E+00    1.2054219542752111E+01
H    7.8271815569079068E+00    1.0161811172290143E+01    5.7814619639483738E+00
H    7.7120113817889955E+00    9.5092512996360146E+00    7.2843726304680674E+00
H    5.2899463871890822E+00    6.4889429596081758E+00    6.3929757321027232E+00
H    4.8678252868838809E+00    6.3175211180860735E+00    4.8313586361434462E+00
H    1.1521862541305881E+01    2.1923283626799925E+00    4.2496614328179430E+00
H    1.1222791846958081E+01    7.8414795598373499E-01    4.7829538343864941E+00
H    8.8119942350220839E+00    9.6778779613700294E+00    3.9666686831542459E+00
H    9.9342844970874058E+00    1.0814156988791073E+01    3.7816372858602381E+00
H    3.1082289528957325E+00    1.0546326407174730E+01    5.2868803913860027E+00
H    4.3132584907104032E+00    1.1455620653058032E+01    5.0610780320727988E+00
H    4.2220406784265901E-01    7.3045102192444595E+00    3.8013135649940795E+00
H    2.9772343931228512E-01    5.7724401932042664E+00    3.4526995513594914E+00
H    7.5860591209727746E+00    6.5678847601548886E+00    3.2915836809343055E+00
H    6.6758385347285802E+00    5.3831754309177189E+00    2.5200133494028787E+00
H    3.8532534172200719E+00    6.3060046348704386E+00    2.8123783749706761E+00
H    2.7953246440735739E+00    6.5485847389781000E+00    3.9537741358611371E+00
H    5.5553176437610166E+00    8.0120599991628882E+00    8.6583941104726261E+00
H    6.9993930795502539E+00    7.4780238970675432E+00    8.4104344163928939E+00
H    9.5571588990614327E+00    7.3280446145747680E-01    3.0174818797265712E+00
H    8.9237164310792600E+00    1.3437510586148937E-01    4.4076447871976505E+00
H    3.8482457315669731E+00    1.1174438455171158E+01    1.3441470566656677E+00
H    3.9626056228571920E+00    1.0964278466898033E+01    3.0102551897949876E+00
H    5.9449661422372513E+00    7.8891857853092935E+00    2.7995741535957310E+00
H    4.7652120121306130E+00    8.7229381074892025E+00    3.5906717261660197E+00
H    1.0905815782848224E+01    5.5302201800698123E+00    4.9342869455824934E+00
H    9.5033245323309128E+00    4.6732708376730470E+00    4.7171193166483976E+00
H    1.1491942104116951E+01    9.0018887406785524E+00    3.3983649908363898E+00
H    1.1959903629038950E+01    8.7851547644294552E+00    4.9401026898657951E+00
H    2.9404439844275641E+00    1.1333326721638119E+01    7.4881123877730431E+00
H    1.3993518978818562E+00    1.1120275827042818E+01    6.8063456551228727E+00
H    7.2181951384384933E+00    1.2809608485300716E-01    9.7032371258683128E+00
H    7.1648660378592481E+00    1.0772078745127506E-01    1.1367500988399767E+01
H    4.8113412051056192E+00    9.3237474535606832E+00    1.0837702423611994E+01
H    6.0816481698036267E+00    9.8060697913096533E+00    1.0186927365163575E+01
H    1.0565212262638449E+01    6.7306908548556041E+00    1.0314443980528022E+01
H    1.1239043366237530E+01    5.5938377372083563E+00    9.3143651163970809E+00
H    1.2188456954751953E+01    8.9927460848978882E+00    1.0127821223537246E+01
H    1.1415764242457804E+01    8.6329965781027909E+00    8.6365688433574537E+00
     &END COORD
     &VELOCITY
           2.4353373553012063E-04   -1.2006097602747649E-04    8.6380096427615848E-05
           5.1311970177944984E-05   -1.2708266219035649E-06   -1.4048482607286835E-05
          -1.3298767757255730E-04   -8.3910828186253221E-05   -1.7227772179773235E-04
           3.2311111387365020E-04   -2.8974228281274626E-04    2.2815855771247021E-04
           3.6807112799892199E-04   -1.6540691872325480E-04    8.2168021721942526E-05
           8.6843810077257019E-05   -1.6733145784953761E-04    2.3233906169718412E-04
          -1.9144732815527121E-04    3.6490306374219158E-05    1.7692428816282649E-04
          -2.7339212137269441E-04   -2.0181330326480977E-06   -2.5185283188745557E-04
          -2.9114797156479526E-04    1.4202524657060163E-04   -9.4207613530674020E-05
           4.9604684382327443E-05    1.9764986075529773E-04   -3.9675655902557272E-05
          -1.0338266296048292E-04    2.5533554886739173E-04   -1.7753567723038515E-04
           1.2393271803260686E-04   -5.1522817966133085E-05    2.4869105054658525E-04
           3.7171385612594387E-05    1.3912087635378523E-04   -2.6001104941563845E-04
          -9.0584380442525599E-05   -5.4256969624737093E-05    1.3571849163623899E-04
          -1.3532069033544924E-05    2.9312535024566758E-04   -1.1035216194560487E-04
           3.4365663856567692E-04    1.2592891247610537E-04    1.2984947778228319E-04
           3.1061310688012812E-05   -2.1491061234673667E-04    1.3642911352236927E-04
          -1.1197980598899280E-04    8.8708519146442298E-05    8.1551359029651216E-05
           7.2553977150180982E-05   -7.4882564047401714E-05   -3.7593240431063423E-05
          -3.9311008770981402E-05    7.7794970772645668E-05   -4.9503853884560739E-05
           1.3050850736506131E-04    3.2997372843544385E-05    2.3384938882067447E-04
          -2.3506710107532583E-04   -1.3038351983519478E-04   -7.8872779760879658E-05
           2.2656471395944404E-04    3.8984618350284618E-06   -1.0674489559479561E-04
          -4.8910812396596708E-04   -8.8250996373280286E-05    4.1168871694918710E-05
          -2.3516505104807125E-04    3.0141522873713299E-05   -4.3307021530198364E-05
           2.3874077440289937E-04    1.6479626533058870E-04   -6.5961174409211060E-06
           2.1570400438791858E-06   -3.6687604474187061E-04    1.9056449025724126E-05
           1.5263290745941253E-04   -4.5423683354147420E-05   -4.7828240983716370E-05
          -2.4361660474171397E-04   -1.5799538490337452E-04    1.4701044899477887E-04
          -4.6332302277593550E-05    6.6958418740688464E-05   -1.4093723621252721E-04
           7.0402526349129654E-05    1.4787938508861975E-04    2.3294646136638565E-04
          -1.0541845847183217E-04    9.0959878375233437E-05    1.4239486316672362E-04
           3.9447066267468694E-04    6.7697585287151277E-05    1.1078543440029842E-04
          -7.7642050395337615E-05   -1.2536442818485201E-04   -1.9896428319762357E-04
           4.0834731830766038E-04    1.4767279245029221E-04    2.0697580190575195E-05
          -2.3059415804947025E-04   -1.2069261926445214E-04    1.1528847271886312E-04
          -2.2453224222836830E-04    3.2508315209903166E-04   -1.1011175869291928E-04
          -2.5223464560283331E-05    3.9102949516756590E-04    1.6353834116428475E-04
           2.2717843315476360E-05   -6.2765751654875604E-06    4.4671040029281667E-05
          -2.2749659830728814E-04   -6.9576305513858875E-06    6.3788388337411212E-05
          -7.5841302717709225E-05    8.7087799013654964E-05   -2.6939094015303230E-04
          -1.5166914072241351E-04   -1.6482446184644460E-04   -8.8619423403445320E-05
           8.3255811679381613E-06   -5.3065384631799461E-05   -7.5044278376024701E-05
           6.6403553283632662E-05    1.1865592146571769E-04   -1.6876922794277114E-04
          -3.6854176965561621E-04   -4.4916679521330734E-04   -7.2212204728087448E-05
          -1.2514834926147033E-04   -2.1658705550588845E-04    1.4279407557088443E-05
           1.5301292386316726E-04    7.8212466737114997E-05   -2.6042789655645915E-04
           1.1597437780917418E-04    1.3153166326603172E-04    1.9714489345802277E-05
          -2.7586288470148999E-05    4.9135802992294331E-05   -8.2847135186074047E-05
           1.7533037836935878E-04   -1.0200057778957294E-04   -1.5955910871006783E-05
           9.1305293482518206E-06   -1.7063363096505874E-04   -1.2704533408684749E-04
           2.0532414020140268E-04   -1.8523108330929225E-04    1.5576953260037926E-04
          -9.5082342048499139E-05    3.8898283928662084E-04    6.8143354604300772E-05
          -3.3468517683422658E-05    1.1413973594558649E-04    4.8372670605905642E-05
          -3.2167308794155559E-04   -6.7373694363205409E-05   -3.3440505798440940E-04
          -1.0565699375446349E-04   -1.8612919959392279E-04   -4.1185047196577395E-05
           3.0227443463844633E-04   -1.9476821497337164E-08   -4.0898192670864066E-05
           3.4132859751091191E-04   -7.5666618757484218E-05    3.1369871723573137E-04
           4.8774504465576241E-06    9.5432986767946803E-05    4.0463993791182202E-05
          -7.3525642131397397E-05   -1.1023344657340922E-04   -1.6990266178690058E-04
          -9.5305467323543141E-05    1.5924492797730886E-04    1.0050784054875449E-04
           2.9577992716562610E-04   -2.0302338272430612E-04   -3.8000268541258118E-06
           3.3426751499409212E-05    2.9960856875958275E-05    2.2957098673979710E-05
           2.1247046210073878E-04   -1.8773508816422781E-04   -7.1323934923045985E-05
          -4.5158839413366765E-04   -3.6143060076254717E-05   -6.1976176340973108E-04
           9.6706711087818234E-04   -4.1494673937841697E-04   -1.4270244722056056E-03
           7.4657709739072960E-04    7.4979183341740570E-04   -2.9716006652422833E-05
           1.1944835029974246E-03   -2.4887952169331986E-04   -4.6965328168300667E-04
           3.3415678178293277E-04   -4.4057529886012731E-04   -4.5347033645666595E-04
           1.1012796129976968E-03    2.9083917956326138E-04   -1.2194190254989866E-03
           2.2415342341850620E-04    1.5937251548526618E-03   -3.7781211911570736E-04
           1.0073465758504152E-03   -6.8157982680829823E-04    2.6183752026411717E-04
          -6.9769183649261829E-05    2.4841597121557645E-05   -1.3349984300303492E-04
          -6.5395783734679806E-04   -1.1729839030040051E-04    1.7209949838649586E-04
          -6.3912725034529026E-04   -9.4833908164763817E-04   -2.5753189732602736E-04
          -3.9187509728978265E-04   -2.4417797176508956E-04   -5.0822500047768458E-04
           2.8904185306764590E-04   -2.0455475311333452E-03   -7.4488003302783010E-04
           3.8533435942049346E-04   -1.5649598638839972E-03   -8.1999331589228074E-04
           6.6163782211003063E-04   -2.0530137992960364E-04   -4.7022778535029476E-04
          -4.8571775222624111E-05   -1.4283455067427278E-03    8.4970777264297337E-04
          -5.1040502072280500E-04    9.0124041076864315E-04   -4.3717828657607329E-04
           2.7962496773613555E-04    1.1112791910392031E-04   -5.6980553869627232E-04
          -1.5080494509566531E-03    7.3672779723519253E-04   -5.7541529097117203E-06
           2.4475429620244953E-04    9.7437756642232507E-04   -4.8339679942563829E-04
          -8.5981680080124339E-05    5.9512037266546314E-04   -4.8949501762477916E-05
          -6.8266467564739278E-04   -5.5567223333568574E-04    7.1350489601754716E-04
           4.8033714499283854E-05    6.5011279414271231E-04   -7.7943973949743718E-04
           8.0491911092279839E-05   -7.8343749752478168E-04    7.2435736498355392E-04
           2.5839724571652173E-04    7.5578985187002576E-05   -5.8507007757220022E-04
           3.2468632064472402E-04   -2.7324024723720175E-04    2.5249479695088649E-04
          -1.0539062839296275E-03    5.0616494373593676E-04    7.1049452486431693E-04
           8.0541579377087506E-04   -1.4428395473146298E-04   -9.1111624630253599E-04
          -9.3901405514655839E-05   -1.7440336409908102E-04   -6.6695306718406221E-04
          -5.9667439631850585E-04    2.1020879938558612E-03   -1.6524975844297627E-04
          -5.9413689338825909E-04   -1.8314218673325019E-04   -3.0878549940750922E-04
          -1.1299139623480667E-04   -1.9706794256346927E-04    5.4164798334006576E-04
           3.7379192866225810E-04   -2.2187500989277991E-04   -3.6215118741716567E-04
          -5.2111287106488928E-04    8.9091209793685762E-04   -5.6207250900576738E-04
           6.7919292606379185E-04    1.3343181453782192E-04   -5.4958333089205505E-04
          -5.0955912352226343E-05   -7.8811310899837674E-04    5.3306738438914315E-04
          -8.4615276352208358E-05   -4.3969810880325431E-04   -1.5061331385035103E-03
           1.9621493944446637E-04    7.0658921104072925E-04    7.9834173948354389E-04
          -3.1086266728151950E-04    7.4710976671369853E-04    4.9983161015707564E-04
          -7.7088036733902849E-04    8.7923124000374893E-04    4.4906439902483579E-04
           4.7843808737739680E-04    2.0885304144702889E-04    9.9081078441531001E-04
           2.7383478090853964E-04   -1.2076470172231055E-05    2.0312636572830290E-03
           2.2238602224606904E-04    4.5732113706931120E-04    2.0297495633965321E-03
          -1.3983314819410872E-04    6.4110517558938027E-04    2.3541721874429956E-04
           1.0634351964011900E-03   -8.1406755449806630E-04    2.5592615928159585E-04
           5.5764666825122505E-04   -2.4944020396212841E-04    1.0095491375650681E-03
           8.2355304834593054E-04    4.6265598281314355E-04    1.0873683440541604E-03
           1.0554542732449468E-03    1.4711843503854975E-03   -1.9257994644451666E-04
          -5.9301436634631830E-04    1.4338243179684335E-03   -1.0518598720424769E-03
           1.7009542630754890E-04   -2.7229621441771427E-04   -1.8275874434563785E-04
          -3.9794180044460959E-04    1.1377334676035144E-03    1.5111872074745990E-04
          -2.1010779021673421E-04    2.5908254733791219E-04    1.2965840740963232E-03
           5.7014687399916731E-04    4.3663748724402082E-04   -1.4622705924109344E-04
           2.7451658005821033E-04   -1.1055104188384739E-04   -2.7011911348185605E-04
          -1.5488517944030481E-03   -4.8268639177064486E-04    1.0661735519966970E-03
           1.1223093817173804E-04    6.1336181167847333E-04   -2.4337739021746744E-04
          -8.4642821007982168E-04    2.7314900746652125E-04    4.4966165017708211E-04
          -9.0281864257450446E-04    4.6471968390744629E-04   -2.6632644266161765E-04
          -1.1909602595321371E-03    3.2546725742604410E-05   -5.5177771594929907E-05
           2.6878284876655185E-04   -1.1019214431344402E-03    6.7804196597953594E-04
           3.1926309387492180E-04    1.0177813137523524E-03   -3.0847823993012150E-04
          -4.2284471691568580E-04    4.3959034011579144E-04   -8.2960000475823547E-04
           4.5763012012698913E-04   -7.2873611065945578E-04   -1.9810871953244411E-04
          -2.5435809607458838E-04   -2.9857092395660535E-04    4.0812967128047882E-04
          -1.7369381693752969E-04    6.5701533355258383E-04    1.2674523034270932E-03
           2.5615963333469789E-04   -1.0911306517542201E-06    1.1679000472775737E-03
          -1.6308109889442320E-05    1.3149337651431074E-03    1.0407917755709912E-03
           8.9763869708672198E-04   -3.3652501425167797E-04    5.8254652404668146E-04
           1.0486726918949370E-03    1.4387708622967533E-04   -1.3227328924947477E-03
          -7.1280006661936083E-04    3.7576614693726914E-04   -7.8229807967108154E-04
          -4.9597517542870809E-05    2.0943390435139507E-05   -3.3577883356019489E-04