 # Version information for this restart file 
 # current date 2023-08-03 13:39:06.389
 # current working dir /mnt/lustre/indy2lfs/work/tc047/tc047/mrnuff-cirrus/cp2k/nuff-benchmarks/H2O-64-2node
 # Program compiled at                               Wed Aug 2 15:51:15 BST 2023
 # Program compiled on                                             cirrus-login2
 # Program compiled for                                             Cirrus-intel
 # Source code revision number                                       git:d8d7100
 &GLOBAL
   PRINT_LEVEL  LOW
   PROJECT_NAME H2O-64
   RUN_TYPE  MD
 &END GLOBAL
 &MOTION
   &MD
     ENSEMBLE  NVE
     STEPS  10
     TIMESTEP     4.9999999999999994E-01
     STEP_START_VAL  10
     TIME_START_VAL     4.9999999999999982E+00
     ECONS_START_VAL    -1.1007623251464465E+03
     TEMPERATURE     3.0000000000000000E+02
     &AVERAGES  T
       &RESTART_AVERAGES
         ITIMES_START  1
         AVECPU     4.9405370018677788E+00
         AVEHUGONIOT     0.0000000000000000E+00
         AVETEMP_BARO     0.0000000000000000E+00
         AVEPOT    -1.1010668154404116E+03
         AVEKIN     3.0069890126034171E-01
         AVETEMP     3.3142439675492676E+02
         AVEKIN_QM     0.0000000000000000E+00
         AVETEMP_QM     0.0000000000000000E+00
         AVEVOL     1.2909542132085600E+04
         AVECELL_A     2.3458682268415796E+01
         AVECELL_B     2.3458682268415796E+01
         AVECELL_C     2.3458682268415796E+01
         AVEALPHA     9.0000000000000000E+01
         AVEBETA     9.0000000000000000E+01
         AVEGAMMA     9.0000000000000000E+01
         AVE_ECONS    -5.7036317188043242E+00
         AVE_PRESS     0.0000000000000000E+00
         AVE_PXX     0.0000000000000000E+00
       &END RESTART_AVERAGES
     &END AVERAGES
   &END MD
 &END MOTION
 &FORCE_EVAL
   METHOD  QS
   &DFT
     BASIS_SET_FILE_NAME GTH_BASIS_SETS
     POTENTIAL_FILE_NAME POTENTIAL
     &SCF
       SCF_GUESS  ATOMIC
       &OT  T
         MINIMIZER  DIIS
       &END OT
       &PRINT
         &RESTART  OFF
         &END RESTART
       &END PRINT
     &END SCF
     &QS
       EPS_DEFAULT     9.9999999999999998E-13
       EXTRAPOLATION  PS
       EXTRAPOLATION_ORDER  3
     &END QS
     &MGRID
       CUTOFF     2.8000000000000000E+02
       REL_CUTOFF     3.0000000000000000E+01
     &END MGRID
     &XC
       DENSITY_CUTOFF     1.0000000000000000E-10
       GRADIENT_CUTOFF     1.0000000000000000E-10
       TAU_CUTOFF     1.0000000000000000E-10
       &XC_FUNCTIONAL  NO_SHORTCUT
         &PADE  T
         &END PADE
       &END XC_FUNCTIONAL
     &END XC
   &END DFT
   &SUBSYS
     &CELL
       A     1.2413800000000002E+01    0.0000000000000000E+00    0.0000000000000000E+00
       B     0.0000000000000000E+00    1.2413800000000002E+01    0.0000000000000000E+00
       C     0.0000000000000000E+00    0.0000000000000000E+00    1.2413800000000002E+01
       MULTIPLE_UNIT_CELL  1 1 1
     &END CELL
     &COORD
O    1.2265691221627947E+01    1.3554379171424158E+00    1.0875430684012715E+01
O    6.4523069643984927E+00    3.7059062633719226E+00    8.6472636643113532E+00
O    7.7675673951355231E-02    2.1684371536246578E+00    8.2608521123255816E+00
O    1.2086330589737090E+01    2.6383252619362336E+00    2.1708326975636849E+00
O    1.2290560196510279E+01    4.1705949204699913E+00    1.2102197043947433E+01
O    7.2035596726110045E+00    9.4146485856915618E-01    4.7596718561381408E+00
O    8.3332223409533377E+00    7.2077504740971898E+00    4.6827221582125835E+00
O    1.2331825707496023E+01    1.1521085308244945E+01    8.0815299734466013E+00
O    3.2742345188961499E+00    4.4591086965599933E+00    9.1745403213677061E+00
O    2.8601595120416370E+00    3.7871245016871913E+00    6.5410915744247218E+00
O    1.3797112886109841E+00    6.3917880581901176E+00    5.6509704637620961E-01
O    1.8717761880990544E+00    8.6859262981941612E+00    2.0908519529191212E+00
O    3.7724064802103596E+00    1.2107291458155812E+01    8.6206045004982172E+00
O    6.4253589961830091E+00    3.6667889351993894E+00    2.7875811960065531E+00
O    1.9996776817698561E+00    1.8525814940778049E+00    4.8671276287697438E+00
O    8.2870232697559878E+00    2.4222003421164864E+00    6.9417328333568360E+00
O    5.7524951496893406E+00    3.3354107633529182E+00    1.2486441927304302E+01
O    1.1313051414990086E+01    5.6568428932996548E+00    2.2481541693217597E+00
O    4.2889057121707559E+00    2.1146768890844907E+00    1.0586394798004831E+01
O    5.3987998378703370E+00    3.3584238927998182E+00    5.4860023554711779E+00
O    6.5093881290544449E+00    1.1870556687544086E+01    7.1448877052668269E-01
O    3.2525895246416785E+00    2.3434817325715391E+00    2.4132492711214546E+00
O    8.0086831362982238E+00    6.3565304698358718E+00    7.4977786194836034E+00
O    5.9288605826881113E+00    6.5082868323258465E+00    1.2195795095729450E+01
O    1.0610386311436532E+01    1.1861263632461053E+01    1.2200578573099016E+01
O    9.3403643295945091E+00    3.6891058088922257E+00    3.5273419115089406E+00
O    1.1111299843541438E+00    5.7890416771150246E+00    6.6473030303814600E+00
O    8.0194980711238131E+00    3.3269761635710418E+00    1.0869760158477501E+01
O    1.2376083013546662E+01    9.6748017485164084E+00    1.1772437464201849E+01
O    4.2098973265835449E+00    7.0914059878457136E+00    8.1403049713510640E+00
O    3.7839651612970289E+00    8.2290477965539068E+00    1.1585029598452719E+01
O    1.1076298200095001E+01    4.5429098149790361E+00    7.8327544665101190E+00
O    1.0435269832523131E+01    8.4217540714630523E+00    1.0328469115847700E+00
O    1.9827956974872833E+00    6.4005653370061548E+00    1.0353833557955916E+01
O    4.7041684252649727E+00    5.6226860857461403E-01    5.6097297040744634E+00
O    8.7178686987317029E+00    1.2242114021519116E+01    8.0976596680829331E+00
O    2.6327397232809240E+00    1.0520524625894508E+01    8.2914708818936325E-02
O    7.2399912123022192E+00    1.0511639516828552E+01    4.2432763972060279E+00
O    2.2807117212628358E+00    2.7612433538579512E-01    1.0807249794939535E+01
O    8.8632074472443474E+00    9.4642167576057379E-01    1.3400870233089850E+00
O    1.9443010564853680E+00    8.0893907787971351E+00    7.5354954085064660E+00
O    9.6598268770605635E+00    8.0354923931291982E+00    9.8565408159861878E+00
O    1.0903669231891188E+01    8.3307122625610059E+00    6.4773119488925133E+00
O    3.5124665132315092E+00    4.8693737552338039E+00    1.5451810315134391E+00
O    7.9775887181865510E+00    8.6026768360209811E+00    1.2050859810705257E+01
O    8.3694028848611683E+00    1.0019375195784692E+01    6.6836126003785514E+00
O    5.6546609223314537E+00    6.0810554249666344E+00    5.5283899539327317E+00
O    1.1742552751790592E+01    1.6241883377932365E+00    5.0859546263628213E+00
O    9.7585749951473790E+00    9.8110344561912957E+00    3.5364834297912942E+00
O    3.9627902122681018E+00    1.0548916241539359E+01    4.6848631718496740E+00
O    9.0110924202402021E-01    6.3699160958047791E+00    4.0614660823326076E+00
O    6.8825876156876111E+00    6.4084176011472582E+00    2.5046872105492337E+00
O    3.8180772811827479E+00    6.6391261700161168E+00    3.7786504202964957E+00
O    6.5639467316230391E+00    8.3081673455500962E+00    8.8142645601751042E+00
O    9.7792980437881063E+00    1.3440093692242161E-01    3.8518018541300258E+00
O    4.1040698796140020E+00    1.1645975677414327E+01    2.2167371830935871E+00
O    5.3225429743820776E+00    8.7370886225245936E+00    2.7520608154200907E+00
O    1.0008058591962531E+01    5.3735029665407907E+00    5.3757689310938579E+00
O    1.2260293130221447E+01    8.6464312203550939E+00    3.9709765249997817E+00
O    2.3431385601210040E+00    1.0747244557908962E+01    6.8128199420223270E+00
O    7.0016868551874465E+00    6.6241368924080790E-01    1.0534335410490780E+01
O    5.1724988369890630E+00    1.0218489635933022E+01    1.0357201131261704E+01
O    1.1186305513789565E+01    5.8851551015739467E+00    1.0299187716035531E+01
O    1.2277001260224308E+01    8.9569800093949627E+00    9.0707829070917576E+00
H    1.2357860830731706E+01    2.3336130669252739E+00    1.1187155568543520E+01
H    1.1946220241710627E+01    1.5338173488072695E+00    9.8820453883930419E+00
H    5.5871853426088194E+00    3.4492613541410084E+00    9.0443492587056316E+00
H    6.8931134907707792E+00    3.0239505626689840E+00    7.9852740730675205E+00
H   -1.4374932807738652E-01    1.5098328419610063E+00    7.5263433502058472E+00
H   -3.8863081470386485E-01    3.0530889725934851E+00    7.9297897962466557E+00
H    1.2176296489828543E+01    2.9747369580384277E+00    1.1924332874809667E+00
H    1.2991672705128677E+01    2.9142153785986751E+00    2.5155247900314239E+00
H    1.1517567593231837E+01    4.3255900368445408E+00    1.1434680677252867E+01
H    1.2784986513018366E+01    5.0635244336046883E+00    1.2040091012078928E+01
H    6.9670622346701787E+00    1.7387225601620511E+00    4.1850000735929100E+00
H    6.2296039666330829E+00    6.8947303211082744E-01    5.1579542956579791E+00
H    7.7273735081137565E+00    7.2217674062565580E+00    5.4888583172764323E+00
H    9.1692072167871412E+00    6.6296203275139076E+00    4.9460943069404228E+00
H    1.2846855747609826E+01    1.1781022044300920E+01    8.9005547148165025E+00
H    1.1983278974114038E+01    1.0563476629178334E+01    8.3168526530915674E+00
H    3.5248483355809288E+00    3.8400890178710574E+00    9.9509258876192899E+00
H    2.4297317699945866E+00    4.9331020171904214E+00    9.5245232744318198E+00
H    2.1731938184003483E+00    4.5584091436371725E+00    6.3013341591593548E+00
H    2.8564526256042284E+00    3.8576860117975205E+00    7.5841383258266504E+00
H    1.1402539117556147E+00    7.1967454275138749E+00    1.1594208983718040E+00
H    2.2451171240554366E+00    6.0044560574520300E+00    1.0028292980710698E+00
H    2.8160026093261350E+00    8.9701473038210047E+00    2.2994247561324430E+00
H    1.3289450005950245E+00    8.9940773536410781E+00    2.8983100092882719E+00
H    4.4550591679043992E+00    1.1540320632851394E+01    9.1643576662466391E+00
H    3.0505711472946260E+00    1.2474005028879718E+01    9.2862522483545131E+00
H    5.8591666421269304E+00    3.4580100700776617E+00    3.6616851024566435E+00
H    5.8328742264891300E+00    3.4002922178486572E+00    1.9823307374076373E+00
H    9.5572611638982286E-01    1.6451712168315258E+00    4.8407909619531688E+00
H    2.2283444181420187E+00    2.4812713852574988E+00    5.6873030305147747E+00
H    8.4431245059901787E+00    1.6049877318589905E+00    7.5442116124544354E+00
H    8.0660994841679834E+00    2.0136933689787093E+00    6.0338203198001361E+00
H    5.2179741117744962E+00    2.8944033191690184E+00    1.1676399084693394E+01
H    6.6808709760189169E+00    3.4137078887782701E+00    1.1974300217660584E+01
H    1.0787579562973480E+01    6.5181197889748370E+00    2.0988579269068839E+00
H    1.1679706778665658E+01    5.3602110737705537E+00    1.3423727078773591E+00
H    3.4353057955578743E+00    1.5422699911174986E+00    1.0899340815425203E+01
H    4.8360485702944036E+00    1.4266340285649199E+00    1.0089916384864441E+01
H    4.3860607829044387E+00    3.3639145070872769E+00    5.6882685052592201E+00
H    5.6851714190647069E+00    4.3694444329673656E+00    5.5474154036563448E+00
H    6.2904804048387257E+00    1.1824217953334596E+01    1.7188480100643926E+00
H    5.6254641812453103E+00    1.2118531010247661E+01    3.2824508347079800E-01
H    3.5448573483476697E+00    1.3905341519238548E+00    2.1815279666969669E+00
H    2.6083113748093942E+00    2.2011598085358690E+00    3.2448945681038501E+00
H    7.1214218837230270E+00    5.8747071446837973E+00    7.5240572137578354E+00
H    8.6555160568687661E+00    5.7350202337792693E+00    7.0296204332786374E+00
H    6.0003836070029273E+00    5.6511562312009396E+00    1.1673082486798553E+01
H    6.2576732802190422E+00    6.3249637437985626E+00    1.3168254323635471E+01
H    1.1110396422511052E+01    1.2636582150483717E+01    1.1695466243762921E+01
H    1.0264522667314159E+01    1.2297177086809700E+01    1.3044653989288474E+01
H    9.9063833653605524E+00    4.0522743932580685E+00    2.7328440010559270E+00
H    8.5320879706477690E+00    3.4662362318687765E+00    2.9418373706985865E+00
H    1.4550165199537228E+00    6.6684268578473151E+00    7.1063081480778916E+00
H    1.0011846960110165E+00    6.1757849888512695E+00    5.6553257210842496E+00
H    7.9834383168153451E+00    3.6965600156462828E+00    9.9295254035484479E+00
H    8.0703050731562591E+00    2.3148761700540401E+00    1.0750109953178583E+01
H    1.1741856955038816E+01    1.0457046792694001E+01    1.2099116522328664E+01
H    1.2145113035773351E+01    8.9347057518291759E+00    1.2412278015077158E+01
H    3.3373441398217545E+00    7.6121189967396967E+00    7.8531113790447566E+00
H    3.8437404997801750E+00    6.2417170006996034E+00    8.6113781620861367E+00
H    3.1132048694106551E+00    7.6196674890883118E+00    1.1070334639355918E+01
H    4.4752609606009921E+00    7.6309535586690540E+00    1.2076672515554959E+01
H    1.1595109075910381E+01    4.9845971853208573E+00    7.0588086549213038E+00
H    1.0300179646157064E+01    4.1359780470035972E+00    7.3180405599936433E+00
H    1.0066859028657692E+01    8.9451142006842872E+00    1.8647420070760108E+00
H    9.5720897423752831E+00    8.2655563920176185E+00    4.9823227537667247E-01
H    1.3189876664556728E+00    6.6902311101742074E+00    9.6502228821050835E+00
H    1.4021547291055936E+00    6.4513381197012274E+00    1.1227717775738437E+01
H    4.1225227084818217E+00    1.3300958457232106E+00    5.2660310885245138E+00
H    4.6863014012485396E+00    6.4332081832292409E-01    6.6181574626619222E+00
H    9.4703739840674110E+00    1.2334173896527799E+01    8.7409121785594728E+00
H    8.8486705805520831E+00    1.1353162651343494E+01    7.5414161566643987E+00
H    1.7346243376506703E+00    1.0023269196055145E+01    1.4521089677736654E-01
H    3.3374330937771122E+00    9.8445733321797544E+00   -2.3578650080695562E-01
H    7.0506121547578289E+00    1.1505999570463953E+01    4.1254822367652135E+00
H    6.4716144239809807E+00    9.9355117782159983E+00    3.7910213271467876E+00
H    1.3268017188784522E+00    5.8361467399916045E-01    1.1128891425288129E+01
H    2.5223736851222904E+00   -5.4515284208262027E-01    1.1460505429957157E+01
H    8.7695034601091955E+00    1.8730261306346654E+00    9.9022339814273785E-01
H    8.0909040111767236E+00    3.3982611891743530E-01    9.9167137075842227E-01
H    1.1204885569469178E+00    8.3716616986633365E+00    8.1793585849232731E+00
H    2.0883466262746562E+00    8.9941815003034229E+00    7.0139251045160220E+00
H    8.9092338083700007E+00    7.7940115337032587E+00    9.2222012190837308E+00
H    9.0650360993651518E+00    8.4492997048299383E+00    1.0614237103704331E+01
H    1.0125261936622127E+01    7.6972651388061468E+00    6.4508008035740092E+00
H    1.0499882480553653E+01    9.1992905673857504E+00    6.1555510652609451E+00
H    3.4970438967311335E+00    3.9586491104197030E+00    2.1122397671537803E+00
H    4.0583866165585452E+00    4.5845492847974176E+00    7.4299433254026281E-01
H    7.3547019310357831E+00    9.3907165959531653E+00    1.2034560547161229E+01
H    7.3341204126243120E+00    7.7711803058270279E+00    1.2054181675347209E+01
H    7.8271359122355681E+00    1.0161864557796562E+01    5.7814824441729824E+00
H    7.7120973949995593E+00    9.5091968613049485E+00    7.2843865451266030E+00
H    5.2900515914213120E+00    6.4890676352473191E+00    6.3929667695952705E+00
H    4.8679125606970040E+00    6.3175498760842261E+00    4.8312977475731032E+00
H    1.1521813479056148E+01    2.1923134294362958E+00    4.2496119720284105E+00
H    1.1222779192576649E+01    7.8413521722496060E-01    4.7830452887770196E+00
H    8.8119906724500101E+00    9.6778997188623865E+00    3.9666598404568556E+00
H    9.9342635723548369E+00    1.0814166420179106E+01    3.7816690213251101E+00
H    3.1082412934277537E+00    1.0546280663961966E+01    5.2869156842282292E+00
H    4.3132121960852743E+00    1.1455647024803731E+01    5.0610955611754909E+00
H    4.2219844129769640E-01    7.3045251091106556E+00    3.8013411241080117E+00
H    2.9766507545161608E-01    5.7724531525169667E+00    3.4527167705322097E+00
H    7.5860409191411051E+00    6.5679521129192553E+00    3.2915919983255248E+00
H    6.6758593794493208E+00    5.3831662367035342E+00    2.5200074513619146E+00
H    3.8532901491626581E+00    6.3060011184120999E+00    2.8123839800106087E+00
H    2.7953202289158856E+00    6.5486583544770562E+00    3.9537589710662604E+00
H    5.5553109353381069E+00    8.0120428669699848E+00    8.6584496783236755E+00
H    6.9993998569156810E+00    7.4780307290167567E+00    8.4104207149778638E+00
H    9.5571587465052890E+00    7.3282222377274131E-01    3.0174934412141514E+00
H    8.9237161921949788E+00    1.3434744964855058E-01    4.4076415640865632E+00
H    3.8482518861391353E+00    1.1174452569524437E+01    1.3441132624695711E+00
H    3.9626527205397952E+00    1.0964284064940692E+01    3.0102559476072135E+00
H    5.9449721154894286E+00    7.8892003227199288E+00    2.7995602859871767E+00
H    4.7651318478104878E+00    8.7229145811686362E+00    3.5906365527452420E+00
H    1.0905855590462348E+01    5.5302297929428414E+00    4.9343939976039763E+00
H    9.5033533984917202E+00    4.6732861306342333E+00    4.7170650155462699E+00
H    1.1491935736740345E+01    9.0019296606962609E+00    3.3983882088428872E+00
H    1.1959938005669152E+01    8.7851571773519392E+00    4.9401248591306617E+00
H    2.9404442925200658E+00    1.1333366123652450E+01    7.4880999173576335E+00
H    1.3993361021505606E+00    1.1120249168991513E+01    6.8063795104244544E+00
H    7.2180390176117095E+00    1.2798394447454509E-01    9.7032741476543443E+00
H    7.1646531631429466E+00    1.0771817698161232E-01    1.1367537673088417E+01
H    4.8113494103453842E+00    9.3237233228418415E+00    1.0837722105749091E+01
H    6.0817040348704348E+00    9.8061889870778227E+00    1.0186961890390490E+01
H    1.0565212968846099E+01    6.7306912582551188E+00    1.0314509384118690E+01
H    1.1239212631589245E+01    5.5937306260539295E+00    9.3143955162382390E+00
H    1.2188441116721902E+01    8.9926759698745204E+00    1.0127830375806756E+01
H    1.1415745606508056E+01    8.6329943934293425E+00    8.6365927756283210E+00
     &END COORD
     &VELOCITY
           2.4352895689777284E-04   -1.2005787686848023E-04    8.6437472843860975E-05
           5.1308833496888740E-05   -1.2157267875363103E-06   -1.4102765547912065E-05
          -1.3301557325204176E-04   -8.3933401103891702E-05   -1.7228315507968023E-04
           3.2310035322849815E-04   -2.8975142829605041E-04    2.2821840321577612E-04
           3.6814672511776181E-04   -1.6545926054229034E-04    8.2260305156953351E-05
           8.6833533915131318E-05   -1.6730042257737026E-04    2.3230467887992929E-04
          -1.9151490594577128E-04    3.6505951846671256E-05    1.7677888658452714E-04
          -2.7334923677305737E-04   -2.0364577276966740E-06   -2.5180936275433105E-04
          -2.9104530009467071E-04    1.4206649360486813E-04   -9.4225803956380716E-05
           4.9611736872431206E-05    1.9755004721343521E-04   -3.9672360393973354E-05
          -1.0339976255358452E-04    2.5535991311230932E-04   -1.7751224400518981E-04
           1.2391364052855973E-04   -5.1653553927232806E-05    2.4858753532780849E-04
           3.7151260902524110E-05    1.3910103950699133E-04   -2.6002426241720676E-04
          -9.0568511030081307E-05   -5.4222395370718319E-05    1.3572623090206317E-04
          -1.3545521086180098E-05    2.9306779465282330E-04   -1.1045795169664113E-04
           3.4361721983015896E-04    1.2593016463779139E-04    1.2983789202295558E-04
           3.1082499004534055E-05   -2.1485637728354989E-04    1.3648810971810489E-04
          -1.1186997159032364E-04    8.8655851502252237E-05    8.1590272417422750E-05
           7.2533933878514076E-05   -7.4819315189047554E-05   -3.7629488888848155E-05
          -3.9322988575417030E-05    7.7713369530417218E-05   -4.9484602597850385E-05
           1.3057379766236372E-04    3.2998964297551265E-05    2.3389866014223394E-04
          -2.3509358637227744E-04   -1.3034774433749065E-04   -7.8879784829912608E-05
           2.2663974882080918E-04    3.8940882891205606E-06   -1.0672780451649992E-04
          -4.8905242918541065E-04   -8.8291554419155400E-05    4.1273297091836764E-05
          -2.3517177964237142E-04    3.0047635156375143E-05   -4.3285500883653886E-05
           2.3871849795368969E-04    1.6484647710445868E-04   -6.5701800575484981E-06
           2.1756702615859729E-06   -3.6685136593999279E-04    1.9083731501076265E-05
           1.5263277743778912E-04   -4.5406823835449965E-05   -4.7850620499742568E-05
          -2.4366711287571215E-04   -1.5793106100455887E-04    1.4697438563683463E-04
          -4.6380813504942229E-05    6.7005925797604648E-05   -1.4094312562565022E-04
           7.0386578672759762E-05    1.4790076784432641E-04    2.3286433602903996E-04
          -1.0544099119060840E-04    9.0971533133639361E-05    1.4244526952011239E-04
           3.9446322296792267E-04    6.7569172820103378E-05    1.1084316707417461E-04
          -7.7542156657980286E-05   -1.2551164720901983E-04   -1.9898819772624481E-04
           4.0834979217832203E-04    1.4764967627247381E-04    2.0705283491332279E-05
          -2.3057413576363169E-04   -1.2071393189566604E-04    1.1534324681663656E-04
          -2.2445140569528081E-04    3.2516286912484424E-04   -1.1004648482222551E-04
          -2.5249548995298815E-05    3.9104765548107062E-04    1.6361307451874987E-04
           2.2783467789935896E-05   -6.3114575280933580E-06    4.4689206318593942E-05
          -2.2749371826830106E-04   -7.0059699226354038E-06    6.3814403816959549E-05
          -7.5853164186694724E-05    8.7002441536696804E-05   -2.6945242200143699E-04
          -1.5174645296481685E-04   -1.6488710611714557E-04   -8.8599937395891253E-05
           8.3186202724737160E-06   -5.3104079059767351E-05   -7.5058533111122710E-05
           6.6500165507108253E-05    1.1873974519950978E-04   -1.6876577035665000E-04
          -3.6861210826444790E-04   -4.4905138593327021E-04   -7.2135058686510431E-05
          -1.2506938727260882E-04   -2.1650974605774437E-04    1.4245782354277713E-05
           1.5305853253027638E-04    7.8061367150611586E-05   -2.6041680607621898E-04
           1.1603170847602577E-04    1.3154101218197442E-04    1.9734889966951057E-05
          -2.7566410321199137E-05    4.9188391052875029E-05   -8.2861079404120437E-05
           1.7539773471439462E-04   -1.0194492078752106E-04   -1.5958541295132064E-05
           9.1160346887208006E-06   -1.7067102899852261E-04   -1.2704807040630960E-04
           2.0533708583848491E-04   -1.8520865666396956E-04    1.5572511017046574E-04
          -9.5059251453815302E-05    3.8900119903850512E-04    6.8133144196604167E-05
          -3.3406382324354831E-05    1.1411499707529543E-04    4.8377796709497272E-05
          -3.2166174218051864E-04   -6.7429210558584058E-05   -3.3439454031888361E-04
          -1.0567197804929330E-04   -1.8604152118342315E-04   -4.1177966911968212E-05
           3.0232555384646776E-04    4.4482756767745452E-08   -4.0954738014115052E-05
           3.4127138907836906E-04   -7.5686724692432562E-05    3.1369710523392801E-04
           4.8645208042700877E-06    9.5406277061985863E-05    4.0430203566376061E-05
          -7.3487234920196397E-05   -1.1019701265412798E-04   -1.6988167751706365E-04
          -9.5116294348587810E-05    1.5929238980008539E-04    1.0050636564769649E-04
           2.9577452115322073E-04   -2.0295534619203733E-04   -3.8717435444666001E-06
           3.3427097552706124E-05    2.9886113903907016E-05    2.3028601056534832E-05
           2.1249634917576708E-04   -1.8765388695125533E-04   -7.1382764687053020E-05
          -4.5134200614059322E-04   -3.6461998040773983E-05   -6.2014780459500698E-04
           9.6717121606836433E-04   -4.1496771604865079E-04   -1.4275705698059923E-03
           7.4612048410884076E-04    7.4926340799404882E-04   -2.8983563266349727E-05
           1.1950822730789853E-03   -2.4938163772331959E-04   -4.6955699926862573E-04
           3.3437263773505789E-04   -4.4066319730814979E-04   -4.5337897815234639E-04
           1.1011431662419861E-03    2.9139917326161764E-04   -1.2198962736624706E-03
           2.2385249971013576E-04    1.5948609342845558E-03   -3.7881054219918332E-04
           1.0079326383141244E-03   -6.8228660473819219E-04    2.6177285017233164E-04
          -7.1676772165208668E-05    2.5746464897082636E-05   -1.3520750351237492E-04
          -6.5359743159877290E-04   -1.1729133118077882E-04    1.7260386305448309E-04
          -6.3946645532144070E-04   -9.4886603544998066E-04   -2.5714998908942969E-04
          -3.9131100882869058E-04   -2.4416892645050627E-04   -5.0810873229491856E-04
           2.8831271512151473E-04   -2.0448067102046938E-03   -7.4372526402175746E-04
           3.8720872054118542E-04   -1.5659038684784255E-03   -8.1922109566798620E-04
           6.6131192185165755E-04   -2.0572267226751356E-04   -4.7008211594481259E-04
          -4.8840437585523385E-05   -1.4279618006711259E-03    8.4954144524116305E-04
          -5.1075273925398361E-04    9.0001937672781523E-04   -4.3720385364861257E-04
           2.7825781517316504E-04    1.1169167719204078E-04   -5.6938528402056634E-04
          -1.5084824930727317E-03    7.3769946902461426E-04   -6.1844046648054305E-06
           2.4538874923188728E-04    9.7494646952665386E-04   -4.8314180616314820E-04
          -8.5480359467157485E-05    5.9478416171855153E-04   -4.9304901637507603E-05
          -6.8266994505040979E-04   -5.5575566575115679E-04    7.1333097089145510E-04
           4.9456847777222036E-05    6.5025459335087262E-04   -7.7972174813330328E-04
           7.9382955319671290E-05   -7.8198264146112084E-04    7.2595378947923404E-04
           2.5852131569737639E-04    7.5469391166576905E-05   -5.8533339039064229E-04
           3.2409077359174629E-04   -2.7317136237431974E-04    2.5330976797433875E-04
          -1.0540506164912887E-03    5.0562455740696096E-04    7.1097587663539706E-04
           8.0546734662733429E-04   -1.4475933298940821E-04   -9.1148946840310973E-04
          -9.4447429197163214E-05   -1.7442565229123803E-04   -6.6682127829218612E-04
          -5.9604062243281042E-04    2.1026825326365558E-03   -1.6362959701378125E-04
          -5.9396099203031525E-04   -1.8326838202905780E-04   -3.0896384759861753E-04
          -1.1277145425897128E-04   -1.9670835968854981E-04    5.4210691563571568E-04
           3.7332633878735841E-04   -2.2247370329907303E-04   -3.6283756805860978E-04
          -5.2077706488838009E-04    8.9077612568315380E-04   -5.6184164068756419E-04
           6.7815751256425165E-04    1.3444514439274957E-04   -5.4935154403458301E-04
          -5.1310271398168833E-05   -7.8829554703780725E-04    5.3276039724013506E-04
          -8.5130409006230082E-05   -4.3984632745326332E-04   -1.5059866460116198E-03
           1.9680255627766522E-04    7.0602917217666317E-04    7.9813152563610852E-04
          -3.1120886792396370E-04    7.4703220924877576E-04    4.9930464952371693E-04
          -7.7046114692056042E-04    8.8060124139559401E-04    4.4946245364780853E-04
           4.7827412322411195E-04    2.0967831427784055E-04    9.9045583191765272E-04
           2.7338768314314323E-04   -1.2911505092227748E-05    2.0308294566653536E-03
           2.2268144216487307E-04    4.5671096290269197E-04    2.0294438626998145E-03
          -1.3963762681194763E-04    6.4107067981806402E-04    2.3590679284782337E-04
           1.0627265607017372E-03   -8.1441755638335899E-04    2.5570925291618633E-04
           5.5752905183826032E-04   -2.4904265434184437E-04    1.0092943120082855E-03
           8.2308722580114950E-04    4.6317561234735774E-04    1.0881531478807930E-03
           1.0550329244347384E-03    1.4718671462273676E-03   -1.9479088051882983E-04
          -5.9234975152743950E-04    1.4349114685486268E-03   -1.0527038082668954E-03
           1.6932613075201685E-04   -2.7170861877314856E-04   -1.8216829138267620E-04
          -3.9770868215920785E-04    1.1372230153314496E-03    1.5121550510416068E-04
          -2.1017769408905100E-04    2.5917097130809041E-04    1.2964206860152179E-03
           5.7060427920070710E-04    4.3671541264014017E-04   -1.4660693894145434E-04
           2.7365554736142304E-04   -1.1051173482085884E-04   -2.7041350586051190E-04
          -1.5490310923863893E-03   -4.8289839359870983E-04    1.0665735172147393E-03
           1.1224150504484949E-04    6.1359106771700976E-04   -2.4338314528382838E-04
          -8.4574512528112181E-04    2.7257287515387976E-04    4.4909119714654555E-04
          -9.0308194375661325E-04    4.6440059128138866E-04   -2.6541928312024299E-04
          -1.1903653561474398E-03    3.2337940593035180E-05   -5.5038916002546157E-05
           2.6854808173426396E-04   -1.1020380157770113E-03    6.7777744831098443E-04
           3.1913849413428070E-04    1.0174460215364662E-03   -3.0838829165776439E-04
          -4.2287091606316992E-04    4.3945863776670137E-04   -8.2903290422643835E-04
           4.5796851366979675E-04   -7.2851844241689787E-04   -1.9906514358409067E-04
          -2.5421516948887413E-04   -2.9861670766413945E-04    4.0880986581214458E-04
          -1.7312719899440605E-04    6.5870510361320112E-04    1.2668576802613251E-03
           2.5583564444175099E-04   -7.9678978615458409E-07    1.1677936184249760E-03
          -1.5491526835267053E-05    1.3159291771859820E-03    1.0400222974299410E-03
           8.9575808405020383E-04   -3.3563207831953346E-04    5.8434047540663000E-04
           1.0485189083691050E-03    1.4354236887507296E-04   -1.3233266899012408E-03
          -7.1283458300004524E-04    3.7647186490165910E-04   -7.8163815422942217E-04
          -5.0191624994083960E-05    2.0915573575699081E-05   -3.3662881984217245E-04