 # Version information for this restart file 
 # current date 2023-08-03 13:39:07.547
 # current working dir /mnt/lustre/indy2lfs/work/tc047/tc047/mrnuff-cirrus/cp2k/nuff-benchmarks/H2O-64-2node
 # Program compiled at                               Wed Aug 2 15:51:15 BST 2023
 # Program compiled on                                             cirrus-login2
 # Program compiled for                                             Cirrus-intel
 # Source code revision number                                       git:d8d7100
 &GLOBAL
   PRINT_LEVEL  LOW
   PROJECT_NAME H2O-64
   RUN_TYPE  MD
 &END GLOBAL
 &MOTION
   &MD
     ENSEMBLE  NVE
     STEPS  10
     TIMESTEP     4.9999999999999994E-01
     STEP_START_VAL  10
     TIME_START_VAL     4.9999999999999982E+00
     ECONS_START_VAL    -1.1007623251464513E+03
     TEMPERATURE     3.0000000000000000E+02
     &AVERAGES  T
       &RESTART_AVERAGES
         ITIMES_START  1
         AVECPU     5.0557407649466768E+00
         AVEHUGONIOT     0.0000000000000000E+00
         AVETEMP_BARO     0.0000000000000000E+00
         AVEPOT    -1.1010668154404116E+03
         AVEKIN     3.0069890126032983E-01
         AVETEMP     3.3142439675491357E+02
         AVEKIN_QM     0.0000000000000000E+00
         AVETEMP_QM     0.0000000000000000E+00
         AVEVOL     1.2909542132085600E+04
         AVECELL_A     2.3458682268415796E+01
         AVECELL_B     2.3458682268415796E+01
         AVECELL_C     2.3458682268415796E+01
         AVEALPHA     9.0000000000000000E+01
         AVEBETA     9.0000000000000000E+01
         AVEGAMMA     9.0000000000000000E+01
         AVE_ECONS    -5.7036317120731832E+00
         AVE_PRESS     0.0000000000000000E+00
         AVE_PXX     0.0000000000000000E+00
       &END RESTART_AVERAGES
     &END AVERAGES
   &END MD
 &END MOTION
 &FORCE_EVAL
   METHOD  QS
   &DFT
     BASIS_SET_FILE_NAME GTH_BASIS_SETS
     POTENTIAL_FILE_NAME POTENTIAL
     &SCF
       SCF_GUESS  ATOMIC
       &OT  T
         MINIMIZER  DIIS
       &END OT
       &PRINT
         &RESTART  OFF
         &END RESTART
       &END PRINT
     &END SCF
     &QS
       EPS_DEFAULT     9.9999999999999998E-13
       EXTRAPOLATION  PS
       EXTRAPOLATION_ORDER  3
     &END QS
     &MGRID
       CUTOFF     2.8000000000000000E+02
       REL_CUTOFF     3.0000000000000000E+01
     &END MGRID
     &XC
       DENSITY_CUTOFF     1.0000000000000000E-10
       GRADIENT_CUTOFF     1.0000000000000000E-10
       TAU_CUTOFF     1.0000000000000000E-10
       &XC_FUNCTIONAL  NO_SHORTCUT
         &PADE  T
         &END PADE
       &END XC_FUNCTIONAL
     &END XC
   &END DFT
   &SUBSYS
     &CELL
       A     1.2413800000000002E+01    0.0000000000000000E+00    0.0000000000000000E+00
       B     0.0000000000000000E+00    1.2413800000000002E+01    0.0000000000000000E+00
       C     0.0000000000000000E+00    0.0000000000000000E+00    1.2413800000000002E+01
       MULTIPLE_UNIT_CELL  1 1 1
     &END CELL
     &COORD
O    1.2265691221627947E+01    1.3554379171424147E+00    1.0875430684012718E+01
O    6.4523069643984980E+00    3.7059062633719235E+00    8.6472636643113532E+00
O    7.7675673951357313E-02    2.1684371536246521E+00    8.2608521123255834E+00
O    1.2086330589737093E+01    2.6383252619362310E+00    2.1708326975636827E+00
O    1.2290560196510276E+01    4.1705949204699904E+00    1.2102197043947429E+01
O    7.2035596726110089E+00    9.4146485856915818E-01    4.7596718561381390E+00
O    8.3332223409533324E+00    7.2077504740971925E+00    4.6827221582125826E+00
O    1.2331825707496023E+01    1.1521085308244945E+01    8.0815299734466013E+00
O    3.2742345188961512E+00    4.4591086965599924E+00    9.1745403213677061E+00
O    2.8601595120416357E+00    3.7871245016871908E+00    6.5410915744247200E+00
O    1.3797112886109790E+00    6.3917880581901168E+00    5.6509704637621028E-01
O    1.8717761880990547E+00    8.6859262981941612E+00    2.0908519529191221E+00
O    3.7724064802103618E+00    1.2107291458155812E+01    8.6206045004982172E+00
O    6.4253589961830073E+00    3.6667889351993876E+00    2.7875811960065597E+00
O    1.9996776817698572E+00    1.8525814940778031E+00    4.8671276287697403E+00
O    8.2870232697559878E+00    2.4222003421164864E+00    6.9417328333568387E+00
O    5.7524951496893362E+00    3.3354107633529142E+00    1.2486441927304309E+01
O    1.1313051414990086E+01    5.6568428932996575E+00    2.2481541693217530E+00
O    4.2889057121707586E+00    2.1146768890844942E+00    1.0586394798004831E+01
O    5.3987998378703379E+00    3.3584238927998191E+00    5.4860023554711752E+00
O    6.5093881290544457E+00    1.1870556687544084E+01    7.1448877052668192E-01
O    3.2525895246416749E+00    2.3434817325715356E+00    2.4132492711214582E+00
O    8.0086831362982220E+00    6.3565304698358753E+00    7.4977786194836078E+00
O    5.9288605826881176E+00    6.5082868323258563E+00    1.2195795095729451E+01
O    1.0610386311436532E+01    1.1861263632461061E+01    1.2200578573099016E+01
O    9.3403643295945109E+00    3.6891058088922253E+00    3.5273419115089379E+00
O    1.1111299843541476E+00    5.7890416771150237E+00    6.6473030303814609E+00
O    8.0194980711238149E+00    3.3269761635710426E+00    1.0869760158477499E+01
O    1.2376083013546664E+01    9.6748017485164031E+00    1.1772437464201852E+01
O    4.2098973265835475E+00    7.0914059878457190E+00    8.1403049713510622E+00
O    3.7839651612970271E+00    8.2290477965539068E+00    1.1585029598452719E+01
O    1.1076298200094996E+01    4.5429098149790441E+00    7.8327544665101136E+00
O    1.0435269832523135E+01    8.4217540714630470E+00    1.0328469115847694E+00
O    1.9827956974872842E+00    6.4005653370061557E+00    1.0353833557955912E+01
O    4.7041684252649736E+00    5.6226860857461436E-01    5.6097297040744607E+00
O    8.7178686987317029E+00    1.2242114021519109E+01    8.0976596680829278E+00
O    2.6327397232809240E+00    1.0520524625894502E+01    8.2914708818932259E-02
O    7.2399912123022201E+00    1.0511639516828552E+01    4.2432763972060297E+00
O    2.2807117212628243E+00    2.7612433538579206E-01    1.0807249794939533E+01
O    8.8632074472443492E+00    9.4642167576057112E-01    1.3400870233089817E+00
O    1.9443010564853751E+00    8.0893907787971244E+00    7.5354954085064669E+00
O    9.6598268770605600E+00    8.0354923931291964E+00    9.8565408159861914E+00
O    1.0903669231891186E+01    8.3307122625610113E+00    6.4773119488925097E+00
O    3.5124665132315096E+00    4.8693737552337995E+00    1.5451810315134362E+00
O    7.9775887181865475E+00    8.6026768360209847E+00    1.2050859810705264E+01
O    8.3694028848611719E+00    1.0019375195784693E+01    6.6836126003785532E+00
O    5.6546609223314528E+00    6.0810554249666318E+00    5.5283899539327344E+00
O    1.1742552751790591E+01    1.6241883377932340E+00    5.0859546263628204E+00
O    9.7585749951473773E+00    9.8110344561912957E+00    3.5364834297912968E+00
O    3.9627902122681049E+00    1.0548916241539361E+01    4.6848631718496749E+00
O    9.0110924202401654E-01    6.3699160958047862E+00    4.0614660823326005E+00
O    6.8825876156876165E+00    6.4084176011472609E+00    2.5046872105492324E+00
O    3.8180772811827484E+00    6.6391261700161124E+00    3.7786504202964948E+00
O    6.5639467316230427E+00    8.3081673455500926E+00    8.8142645601750953E+00
O    9.7792980437881045E+00    1.3440093692242472E-01    3.8518018541300245E+00
O    4.1040698796139949E+00    1.1645975677414329E+01    2.2167371830935902E+00
O    5.3225429743820776E+00    8.7370886225245936E+00    2.7520608154200898E+00
O    1.0008058591962534E+01    5.3735029665407827E+00    5.3757689310938517E+00
O    1.2260293130221449E+01    8.6464312203550975E+00    3.9709765249997844E+00
O    2.3431385601210049E+00    1.0747244557908960E+01    6.8128199420223172E+00
O    7.0016868551874527E+00    6.6241368924081212E-01    1.0534335410490781E+01
O    5.1724988369890630E+00    1.0218489635933024E+01    1.0357201131261702E+01
O    1.1186305513789559E+01    5.8851551015739334E+00    1.0299187716035533E+01
O    1.2277001260224308E+01    8.9569800093949699E+00    9.0707829070917576E+00
H    1.2357860830731740E+01    2.3336130669253641E+00    1.1187155568543552E+01
H    1.1946220241710609E+01    1.5338173488072695E+00    9.8820453883928927E+00
H    5.5871853426088043E+00    3.4492613541409782E+00    9.0443492587056440E+00
H    6.8931134907707765E+00    3.0239505626689929E+00    7.9852740730675391E+00
H   -1.4374932807739768E-01    1.5098328419610190E+00    7.5263433502058996E+00
H   -3.8863081470390753E-01    3.0530889725935224E+00    7.9297897962466335E+00
H    1.2176296489828550E+01    2.9747369580384060E+00    1.1924332874810124E+00
H    1.2991672705128611E+01    2.9142153785986973E+00    2.5155247900314257E+00
H    1.1517567593231817E+01    4.3255900368446074E+00    1.1434680677252819E+01
H    1.2784986513018406E+01    5.0635244336047540E+00    1.2040091012078969E+01
H    6.9670622346701903E+00    1.7387225601621257E+00    4.1850000735928514E+00
H    6.2296039666330261E+00    6.8947303211078637E-01    5.1579542956580129E+00
H    7.7273735081138009E+00    7.2217674062565305E+00    5.4888583172763976E+00
H    9.1692072167871341E+00    6.6296203275139245E+00    4.9460943069404220E+00
H    1.2846855747609833E+01    1.1781022044300917E+01    8.9005547148164954E+00
H    1.1983278974114036E+01    1.0563476629178295E+01    8.3168526530915514E+00
H    3.5248483355809181E+00    3.8400890178709983E+00    9.9509258876193059E+00
H    2.4297317699945884E+00    4.9331020171904152E+00    9.5245232744317754E+00
H    2.1731938184003239E+00    4.5584091436371645E+00    6.3013341591593939E+00
H    2.8564526256042373E+00    3.8576860117975711E+00    7.5841383258266664E+00
H    1.1402539117556432E+00    7.1967454275138456E+00    1.1594208983717516E+00
H    2.2451171240554020E+00    6.0044560574521144E+00    1.0028292980710474E+00
H    2.8160026093261137E+00    8.9701473038210082E+00    2.2994247561324590E+00
H    1.3289450005950638E+00    8.9940773536410425E+00    2.8983100092882403E+00
H    4.4550591679043894E+00    1.1540320632851392E+01    9.1643576662466533E+00
H    3.0505711472946770E+00    1.2474005028879720E+01    9.2862522483544705E+00
H    5.8591666421268904E+00    3.4580100700776741E+00    3.6616851024566892E+00
H    5.8328742264891664E+00    3.4002922178486825E+00    1.9823307374075916E+00
H    9.5572611638985849E-01    1.6451712168315133E+00    4.8407909619531289E+00
H    2.2283444181420098E+00    2.4812713852575197E+00    5.6873030305147809E+00
H    8.4431245059901663E+00    1.6049877318590346E+00    7.5442116124544336E+00
H    8.0660994841680260E+00    2.0136933689787004E+00    6.0338203198001530E+00
H    5.2179741117745051E+00    2.8944033191689988E+00    1.1676399084693360E+01
H    6.6808709760189107E+00    3.4137078887782741E+00    1.1974300217660552E+01
H    1.0787579562973482E+01    6.5181197889747944E+00    2.0988579269068843E+00
H    1.1679706778665631E+01    5.3602110737706212E+00    1.3423727078773804E+00
H    3.4353057955579094E+00    1.5422699911175233E+00    1.0899340815425177E+01
H    4.8360485702944036E+00    1.4266340285649279E+00    1.0089916384864456E+01
H    4.3860607829043747E+00    3.3639145070873004E+00    5.6882685052592503E+00
H    5.6851714190647638E+00    4.3694444329673496E+00    5.5474154036563599E+00
H    6.2904804048387728E+00    1.1824217953334601E+01    1.7188480100643806E+00
H    5.6254641812452970E+00    1.2118531010247667E+01    3.2824508347079623E-01
H    3.5448573483476999E+00    1.3905341519238144E+00    2.1815279666969296E+00
H    2.6083113748093907E+00    2.2011598085358810E+00    3.2448945681038999E+00
H    7.1214218837230767E+00    5.8747071446837724E+00    7.5240572137578248E+00
H    8.6555160568687235E+00    5.7350202337792826E+00    7.0296204332786472E+00
H    6.0003836070028953E+00    5.6511562312009422E+00    1.1673082486798585E+01
H    6.2576732802189960E+00    6.3249637437985591E+00    1.3168254323635383E+01
H    1.1110396422511016E+01    1.2636582150483644E+01    1.1695466243762931E+01
H    1.0264522667314170E+01    1.2297177086809681E+01    1.3044653989288442E+01
H    9.9063833653605560E+00    4.0522743932580738E+00    2.7328440010558994E+00
H    8.5320879706477211E+00    3.4662362318687947E+00    2.9418373706985577E+00
H    1.4550165199537550E+00    6.6684268578474031E+00    7.1063081480779067E+00
H    1.0011846960110009E+00    6.1757849888512553E+00    5.6553257210842247E+00
H    7.9834383168153158E+00    3.6965600156463005E+00    9.9295254035483929E+00
H    8.0703050731562147E+00    2.3148761700539966E+00    1.0750109953178603E+01
H    1.1741856955038809E+01    1.0457046792694006E+01    1.2099116522328638E+01
H    1.2145113035773342E+01    8.9347057518291635E+00    1.2412278015077156E+01
H    3.3373441398216777E+00    7.6121189967396878E+00    7.8531113790447398E+00
H    3.8437404997801519E+00    6.2417170006995661E+00    8.6113781620861296E+00
H    3.1132048694106889E+00    7.6196674890883447E+00    1.1070334639355956E+01
H    4.4752609606009859E+00    7.6309535586690469E+00    1.2076672515554938E+01
H    1.1595109075910397E+01    4.9845971853207711E+00    7.0588086549213145E+00
H    1.0300179646157144E+01    4.1359780470035608E+00    7.3180405599936540E+00
H    1.0066859028657692E+01    8.9451142006843103E+00    1.8647420070760565E+00
H    9.5720897423752547E+00    8.2655563920176203E+00    4.9823227537661557E-01
H    1.3189876664556730E+00    6.6902311101742296E+00    9.6502228821050462E+00
H    1.4021547291055989E+00    6.4513381197012887E+00    1.1227717775738475E+01
H    4.1225227084817790E+00    1.3300958457232266E+00    5.2660310885245023E+00
H    4.6863014012485165E+00    6.4332081832290622E-01    6.6181574626619897E+00
H    9.4703739840673897E+00    1.2334173896527815E+01    8.7409121785594568E+00
H    8.8486705805520813E+00    1.1353162651343471E+01    7.5414161566643756E+00
H    1.7346243376507078E+00    1.0023269196055173E+01    1.4521089677738944E-01
H    3.3374330937771028E+00    9.8445733321797668E+00   -2.3578650080697122E-01
H    7.0506121547578111E+00    1.1505999570463908E+01    4.1254822367651771E+00
H    6.4716144239810030E+00    9.9355117782160018E+00    3.7910213271467765E+00
H    1.3268017188785244E+00    5.8361467399914102E-01    1.1128891425288153E+01
H    2.5223736851223220E+00   -5.4515284208263470E-01    1.1460505429957196E+01
H    8.7695034601091582E+00    1.8730261306347278E+00    9.9022339814273352E-01
H    8.0909040111766828E+00    3.3982611891741482E-01    9.9167137075844147E-01
H    1.1204885569469536E+00    8.3716616986633436E+00    8.1793585849232535E+00
H    2.0883466262746224E+00    8.9941815003034034E+00    7.0139251045160069E+00
H    8.9092338083700238E+00    7.7940115337032818E+00    9.2222012190837379E+00
H    9.0650360993651429E+00    8.4492997048299507E+00    1.0614237103704312E+01
H    1.0125261936622133E+01    7.6972651388061823E+00    6.4508008035739994E+00
H    1.0499882480553655E+01    9.1992905673857237E+00    6.1555510652609371E+00
H    3.4970438967311668E+00    3.9586491104196999E+00    2.1122397671537887E+00
H    4.0583866165585496E+00    4.5845492847974558E+00    7.4299433254027214E-01
H    7.3547019310357875E+00    9.3907165959531476E+00    1.2034560547161211E+01
H    7.3341204126242543E+00    7.7711803058269719E+00    1.2054181675347190E+01
H    7.8271359122355646E+00    1.0161864557796566E+01    5.7814824441730011E+00
H    7.7120973949995690E+00    9.5091968613049858E+00    7.2843865451265586E+00
H    5.2900515914212978E+00    6.4890676352473200E+00    6.3929667695953345E+00
H    4.8679125606969871E+00    6.3175498760842688E+00    4.8312977475730774E+00
H    1.1521813479056140E+01    2.1923134294363082E+00    4.2496119720284167E+00
H    1.1222779192576708E+01    7.8413521722497537E-01    4.7830452887770729E+00
H    8.8119906724500829E+00    9.6778997188623830E+00    3.9666598404568019E+00
H    9.9342635723548351E+00    1.0814166420179054E+01    3.7816690213250927E+00
H    3.1082412934277364E+00    1.0546280663961946E+01    5.2869156842282852E+00
H    4.3132121960852814E+00    1.1455647024803717E+01    5.0610955611754749E+00
H    4.2219844129773926E-01    7.3045251091105703E+00    3.8013411241080219E+00
H    2.9766507545170179E-01    5.7724531525170155E+00    3.4527167705322865E+00
H    7.5860409191410794E+00    6.5679521129192482E+00    3.2915919983255275E+00
H    6.6758593794493040E+00    5.3831662367035511E+00    2.5200074513619120E+00
H    3.8532901491626728E+00    6.3060011184121807E+00    2.8123839800106487E+00
H    2.7953202289158465E+00    6.5486583544770856E+00    3.9537589710662568E+00
H    5.5553109353380856E+00    8.0120428669700026E+00    8.6584496783237217E+00
H    6.9993998569156588E+00    7.4780307290167469E+00    8.4104207149778816E+00
H    9.5571587465052730E+00    7.3282222377275330E-01    3.0174934412141159E+00
H    8.9237161921950143E+00    1.3434744964848727E-01    4.4076415640865569E+00
H    3.8482518861391433E+00    1.1174452569524449E+01    1.3441132624695806E+00
H    3.9626527205397859E+00    1.0964284064940689E+01    3.0102559476072073E+00
H    5.9449721154894357E+00    7.8892003227199199E+00    2.7995602859871727E+00
H    4.7651318478105162E+00    8.7229145811686362E+00    3.5906365527452095E+00
H    1.0905855590462302E+01    5.5302297929428397E+00    4.9343939976040101E+00
H    9.5033533984917415E+00    4.6732861306342990E+00    4.7170650155462974E+00
H    1.1491935736740331E+01    9.0019296606962396E+00    3.3983882088428854E+00
H    1.1959938005669143E+01    8.7851571773519268E+00    4.9401248591306972E+00
H    2.9404442925200405E+00    1.1333366123652446E+01    7.4880999173576237E+00
H    1.3993361021505406E+00    1.1120249168991496E+01    6.8063795104244624E+00
H    7.2180390176116935E+00    1.2798394447451020E-01    9.7032741476543265E+00
H    7.1646531631429200E+00    1.0771817698160618E-01    1.1367537673088460E+01
H    4.8113494103454162E+00    9.3237233228418326E+00    1.0837722105749060E+01
H    6.0817040348704072E+00    9.8061889870778298E+00    1.0186961890390531E+01
H    1.0565212968846165E+01    6.7306912582550549E+00    1.0314509384118669E+01
H    1.1239212631589261E+01    5.5937306260539765E+00    9.3143955162382710E+00
H    1.2188441116721897E+01    8.9926759698745045E+00    1.0127830375806745E+01
H    1.1415745606508088E+01    8.6329943934293212E+00    8.6365927756283192E+00
     &END COORD
     &VELOCITY
           2.4352895689777561E-04   -1.2005787686846214E-04    8.6437472843784553E-05
           5.1308833496979407E-05   -1.2157267875067277E-06   -1.4102765547887588E-05
          -1.3301557325200145E-04   -8.3933401103996572E-05   -1.7228315507954986E-04
           3.2310035322850801E-04   -2.8975142829608164E-04    2.2821840321577086E-04
           3.6814672511773384E-04   -1.6545926054220236E-04    8.2260305156842885E-05
           8.6833533915101028E-05   -1.6730042257730654E-04    2.3230467887991712E-04
          -1.9151490594579952E-04    3.6505951846773171E-05    1.7677888658442409E-04
          -2.7334923677305227E-04   -2.0364577277228397E-06   -2.5180936275430216E-04
          -2.9104530009464274E-04    1.4206649360480071E-04   -9.4225803956360889E-05
           4.9611736872370708E-05    1.9755004721350413E-04   -3.9672360393910809E-05
          -1.0339976255373244E-04    2.5535991311222519E-04   -1.7751224400524304E-04
           1.2391364052857659E-04   -5.1653553927255669E-05    2.4858753532777531E-04
           3.7151260902575705E-05    1.3910103950695430E-04   -2.6002426241718594E-04
          -9.0568511030111014E-05   -5.4222395370724953E-05    1.3572623090219411E-04
          -1.3545521086107670E-05    2.9306779465280096E-04   -1.1045795169674487E-04
           3.4361721983013218E-04    1.2593016463779088E-04    1.2983789202303361E-04
           3.1082499004494956E-05   -2.1485637728359960E-04    1.3648810971823668E-04
          -1.1186997159031118E-04    8.8655851502336141E-05    8.1590272417323017E-05
           7.2533933878564654E-05   -7.4819315188949244E-05   -3.7629488888813867E-05
          -3.9322988575551796E-05    7.7713369530369811E-05   -4.9484602597852852E-05
           1.3057379766236580E-04    3.2998964297567121E-05    2.3389866014217832E-04
          -2.3509358637232455E-04   -1.3034774433758994E-04   -7.8879784829899652E-05
           2.2663974882079774E-04    3.8940882892245026E-06   -1.0672780451637879E-04
          -4.8905242918535915E-04   -8.8291554418997134E-05    4.1273297091769618E-05
          -2.3517177964235307E-04    3.0047635156401221E-05   -4.3285500883644399E-05
           2.3871849795369584E-04    1.6484647710446009E-04   -6.5701800576335326E-06
           2.1756702616934682E-06   -3.6685136593984826E-04    1.9083731501205746E-05
           1.5263277743772001E-04   -4.5406823835445994E-05   -4.7850620499745218E-05
          -2.4366711287570603E-04   -1.5793106100458134E-04    1.4697438563685117E-04
          -4.6380813505041583E-05    6.7005925797825378E-05   -1.4094312562569280E-04
           7.0386578672752606E-05    1.4790076784440155E-04    2.3286433602905435E-04
          -1.0544099119057610E-04    9.0971533133717573E-05    1.4244526952010011E-04
           3.9446322296795688E-04    6.7569172820022646E-05    1.1084316707420873E-04
          -7.7542156657971179E-05   -1.2551164720895133E-04   -1.9898819772630816E-04
           4.0834979217832984E-04    1.4764967627248657E-04    2.0705283491261823E-05
          -2.3057413576360735E-04   -1.2071393189581072E-04    1.1534324681658412E-04
          -2.2445140569519776E-04    3.2516286912475870E-04   -1.1004648482234102E-04
          -2.5249548995291381E-05    3.9104765548104845E-04    1.6361307451883997E-04
           2.2783467789853398E-05   -6.3114575280917207E-06    4.4689206318507897E-05
          -2.2749371826833232E-04   -7.0059699226310839E-06    6.3814403816847592E-05
          -7.5853164186586033E-05    8.7002441536465638E-05   -2.6945242200145363E-04
          -1.5174645296475663E-04   -1.6488710611717436E-04   -8.8599937395891117E-05
           8.3186202725278702E-06   -5.3104079059703125E-05   -7.5058533111182354E-05
           6.6500165507094483E-05    1.1873974519935522E-04   -1.6876577035673644E-04
          -3.6861210826454158E-04   -4.4905138593328073E-04   -7.2135058686467944E-05
          -1.2506938727257393E-04   -2.1650974605774858E-04    1.4245782354280935E-05
           1.5305853253024475E-04    7.8061367150629909E-05   -2.6041680607619800E-04
           1.1603170847608001E-04    1.3154101218202521E-04    1.9734889966892727E-05
          -2.7566410321265077E-05    4.9188391052835883E-05   -8.2861079404098251E-05
           1.7539773471443766E-04   -1.0194492078758169E-04   -1.5958541295116526E-05
           9.1160346887319035E-06   -1.7067102899834377E-04   -1.2704807040638135E-04
           2.0533708583848805E-04   -1.8520865666397192E-04    1.5572511017044826E-04
          -9.5059251453849712E-05    3.8900119903848983E-04    6.8133144196718808E-05
          -3.3406382324330220E-05    1.1411499707530878E-04    4.8377796709398650E-05
          -3.2166174218048633E-04   -6.7429210558554717E-05   -3.3439454031890161E-04
          -1.0567197804943200E-04   -1.8604152118341911E-04   -4.1177966911922757E-05
           3.0232555384646271E-04    4.4482756779336251E-08   -4.0954738014151630E-05
           3.4127138907836586E-04   -7.5686724692479142E-05    3.1369710523385157E-04
           4.8645208042693627E-06    9.5406277062038650E-05    4.0430203566425053E-05
          -7.3487234920216157E-05   -1.1019701265417244E-04   -1.6988167751726062E-04
          -9.5116294348398197E-05    1.5929238980008203E-04    1.0050636564770142E-04
           2.9577452115319965E-04   -2.0295534619193124E-04   -3.8717435444899070E-06
           3.3427097552736448E-05    2.9886113903727150E-05    2.3028601056721735E-05
           2.1249634917579487E-04   -1.8765388695115545E-04   -7.1382764687057045E-05
          -4.5134200614016745E-04   -3.6461998039435142E-05   -6.2014780459425964E-04
           9.6717121606831814E-04   -4.1496771604867844E-04   -1.4275705698075100E-03
           7.4612048410874427E-04    7.4926340799380759E-04   -2.8983563266060296E-05
           1.1950822730795742E-03   -2.4938163772365130E-04   -4.6955699926904976E-04
           3.3437263773473583E-04   -4.4066319730837428E-04   -4.5337897815179930E-04
           1.1011431662410612E-03    2.9139917326272526E-04   -1.2198962736628665E-03
           2.2385249971029262E-04    1.5948609342841050E-03   -3.7881054219807381E-04
           1.0079326383138601E-03   -6.8228660473772479E-04    2.6177285017232703E-04
          -7.1676772165139347E-05    2.5746464897843096E-05   -1.3520750351256073E-04
          -6.5359743159877659E-04   -1.1729133118045730E-04    1.7260386305517617E-04
          -6.3946645532110948E-04   -9.4886603545048644E-04   -2.5714998908918927E-04
          -3.9131100882819543E-04   -2.4416892645031540E-04   -5.0810873229514603E-04
           2.8831271512092497E-04   -2.0448067102050590E-03   -7.4372526402077972E-04
           3.8720872054256398E-04   -1.5659038684795320E-03   -8.1922109566772447E-04
           6.6131192185152528E-04   -2.0572267226761680E-04   -4.7008211594521575E-04
          -4.8840437585321100E-05   -1.4279618006706198E-03    8.4954144524092506E-04
          -5.1075273925414971E-04    9.0001937672742525E-04   -4.3720385364883613E-04
           2.7825781517293693E-04    1.1169167719180389E-04   -5.6938528402108144E-04
          -1.5084824930722859E-03    7.3769946902311643E-04   -6.1844046638853003E-06
           2.4538874923177935E-04    9.7494646952709209E-04   -4.8314180616442761E-04
          -8.5480359467035539E-05    5.9478416171914112E-04   -4.9304901637717613E-05
          -6.8266994504931561E-04   -5.5575566575073612E-04    7.1333097089178220E-04
           4.9456847777833038E-05    6.5025459335102550E-04   -7.7972174813320484E-04
           7.9382955319593282E-05   -7.8198264146116074E-04    7.2595378947937130E-04
           2.5852131569661550E-04    7.5469391167124806E-05   -5.8533339039089230E-04
           3.2409077359236554E-04   -2.7317136237420438E-04    2.5330976797380983E-04
          -1.0540506164913872E-03    5.0562455740721520E-04    7.1097587663487795E-04
           8.0546734662757693E-04   -1.4475933298914741E-04   -9.1148946840297843E-04
          -9.4447429197399381E-05   -1.7442565229141551E-04   -6.6682127829251659E-04
          -5.9604062243292090E-04    2.1026825326371963E-03   -1.6362959701341688E-04
          -5.9396099203028554E-04   -1.8326838202893729E-04   -3.0896384759844894E-04
          -1.1277145425832045E-04   -1.9670835968858404E-04    5.4210691563608680E-04
           3.7332633878659719E-04   -2.2247370330003707E-04   -3.6283756806006207E-04
          -5.2077706488693257E-04    8.9077612568347938E-04   -5.6184164068849031E-04
           6.7815751256357262E-04    1.3444514439289344E-04   -5.4935154403456632E-04
          -5.1310271398137587E-05   -7.8829554703755984E-04    5.3276039723986238E-04
          -8.5130409006099977E-05   -4.3984632745309592E-04   -1.5059866460117258E-03
           1.9680255627800569E-04    7.0602917217624770E-04    7.9813152563583476E-04
          -3.1120886792398745E-04    7.4703220924922679E-04    4.9930464952408925E-04
          -7.7046114691965001E-04    8.8060124139634265E-04    4.4946245364807660E-04
           4.7827412322458244E-04    2.0967831427790365E-04    9.9045583191781058E-04
           2.7338768314308013E-04   -1.2911505092219093E-05    2.0308294566655136E-03
           2.2268144216462950E-04    4.5671096290338413E-04    2.0294438627000062E-03
          -1.3963762681159456E-04    6.4107067981812127E-04    2.3590679284760002E-04
           1.0627265607019670E-03   -8.1441755638381685E-04    2.5570925291610507E-04
           5.5752905183853441E-04   -2.4904265434220660E-04    1.0092943120080010E-03
           8.2308722580092355E-04    4.6317561234673064E-04    1.0881531478803331E-03
           1.0550329244346903E-03    1.4718671462273568E-03   -1.9479088051831665E-04
          -5.9234975152786743E-04    1.4349114685481914E-03   -1.0527038082669507E-03
           1.6932613075179283E-04   -2.7170861877309733E-04   -1.8216829138280289E-04
          -3.9770868215915494E-04    1.1372230153312321E-03    1.5121550510381422E-04
          -2.1017769408942141E-04    2.5917097130833495E-04    1.2964206860149618E-03
           5.7060427920046575E-04    4.3671541263953800E-04   -1.4660693894226172E-04
           2.7365554736106536E-04   -1.1051173482098574E-04   -2.7041350586128071E-04
          -1.5490310923866651E-03   -4.8289839359865546E-04    1.0665735172140410E-03
           1.1224150504438770E-04    6.1359106771716415E-04   -2.4338314528366678E-04
          -8.4574512528110479E-04    2.7257287515360860E-04    4.4909119714631358E-04
          -9.0308194375654895E-04    4.6440059128164302E-04   -2.6541928312040426E-04
          -1.1903653561467036E-03    3.2337940591920634E-05   -5.5038916002210989E-05
           2.6854808173434430E-04   -1.1020380157772676E-03    6.7777744831075209E-04
           3.1913849413447618E-04    1.0174460215365811E-03   -3.0838829165761797E-04
          -4.2287091606251723E-04    4.3945863776619006E-04   -8.2903290422644367E-04
           4.5796851366960902E-04   -7.2851844241785630E-04   -1.9906514358393490E-04
          -2.5421516948907617E-04   -2.9861670766479376E-04    4.0880986581146386E-04
          -1.7312719899423195E-04    6.5870510361361377E-04    1.2668576802617535E-03
           2.5583564444054351E-04   -7.9678978619160959E-07    1.1677936184233799E-03
          -1.5491526835464947E-05    1.3159291771863495E-03    1.0400222974296198E-03
           8.9575808404970347E-04   -3.3563207831857741E-04    5.8434047540791272E-04
           1.0485189083690152E-03    1.4354236887520946E-04   -1.3233266899011892E-03
          -7.1283458300046645E-04    3.7647186490156348E-04   -7.8163815422914765E-04
          -5.0191624994412101E-05    2.0915573575952941E-05   -3.3662881984263568E-04