 # Version information for this restart file 
 # current date 2023-07-21 11:01:47.344
 # current working dir /mnt/lustre/indy2lfs/work/tc047/tc047/mrnuff-cirrus/cp2k
 # Program compiled at                              Thu Jun 30 12:29:55 BST 2022
 # Program compiled on                                             cirrus-login3
 # Program compiled for                                             Cirrus-intel
 # Source code revision number                                       git:e635599
 &GLOBAL
   PRINT_LEVEL  LOW
   PROJECT_NAME H2O-64
   RUN_TYPE  MD
 &END GLOBAL
 &MOTION
   &MD
     ENSEMBLE  NVE
     STEPS  10
     TIMESTEP     4.9999999999999994E-01
     STEP_START_VAL  10
     TIME_START_VAL     4.9999999999999982E+00
     ECONS_START_VAL    -1.1007588181104218E+03
     TEMPERATURE     3.0000000000000000E+02
     &AVERAGES  T
       &RESTART_AVERAGES
         ITIMES_START  1
         AVECPU     4.5522519271587951E+00
         AVEHUGONIOT     0.0000000000000000E+00
         AVETEMP_BARO     0.0000000000000000E+00
         AVEPOT    -1.1010668160173022E+03
         AVEKIN     3.0070034549346875E-01
         AVETEMP     3.3142598856018731E+02
         AVEKIN_QM     0.0000000000000000E+00
         AVETEMP_QM     0.0000000000000000E+00
         AVEVOL     1.2909542132085598E+04
         AVECELL_A     2.3458682268415796E+01
         AVECELL_B     2.3458682268415796E+01
         AVECELL_C     2.3458682268415796E+01
         AVEALPHA     9.0000000000000000E+01
         AVEBETA     9.0000000000000000E+01
         AVEGAMMA     9.0000000000000000E+01
         AVE_ECONS    -1.0896372237413242E+01
         AVE_PRESS     0.0000000000000000E+00
         AVE_PXX     0.0000000000000000E+00
       &END RESTART_AVERAGES
     &END AVERAGES
   &END MD
 &END MOTION
 &FORCE_EVAL
   METHOD  QS
   &DFT
     BASIS_SET_FILE_NAME GTH_BASIS_SETS
     POTENTIAL_FILE_NAME POTENTIAL
     &SCF
       SCF_GUESS  ATOMIC
       &OT  T
         MINIMIZER  DIIS
       &END OT
       &PRINT
         &RESTART  OFF
         &END RESTART
       &END PRINT
     &END SCF
     &QS
       EPS_DEFAULT     9.9999999999999998E-13
       EXTRAPOLATION  PS
       EXTRAPOLATION_ORDER  3
     &END QS
     &MGRID
       CUTOFF     2.8000000000000000E+02
       REL_CUTOFF     3.0000000000000000E+01
     &END MGRID
     &XC
       DENSITY_CUTOFF     1.0000000000000000E-10
       GRADIENT_CUTOFF     1.0000000000000000E-10
       TAU_CUTOFF     1.0000000000000000E-10
       &XC_FUNCTIONAL  NO_SHORTCUT
         &PADE  T
         &END PADE
       &END XC_FUNCTIONAL
     &END XC
   &END DFT
   &SUBSYS
     &CELL
       A     1.2413800000000002E+01    0.0000000000000000E+00    0.0000000000000000E+00
       B     0.0000000000000000E+00    1.2413800000000002E+01    0.0000000000000000E+00
       C     0.0000000000000000E+00    0.0000000000000000E+00    1.2413800000000002E+01
       MULTIPLE_UNIT_CELL  1 1 1
     &END CELL
     &COORD
O    1.2265692089483853E+01    1.3554390129941585E+00    1.0875425741210377E+01
O    6.4523125712781519E+00    3.7059030017229615E+00    8.6472703373291626E+00
O    7.7679434805500894E-02    2.1684363409617817E+00    8.2608499727948246E+00
O    1.2086328917682268E+01    2.6383236471456879E+00    2.1708319631148090E+00
O    1.2290563434792501E+01    4.1705987030843952E+00    1.2102197401501103E+01
O    7.2035546534507793E+00    9.4146440982927526E-01    4.7596753308529571E+00
O    8.3332259924712009E+00    7.2077559238209101E+00    4.6827252174469383E+00
O    1.2331820354972926E+01    1.1521085584601190E+01    8.0815267568455358E+00
O    3.2742305248728849E+00    4.4591006237002571E+00    9.1745323461746207E+00
O    2.8601657947011638E+00    3.7871321994318654E+00    6.5410904120533688E+00
O    1.3797135980522033E+00    6.3917883108529781E+00    5.6509499049338385E-01
O    1.8717778176467585E+00    8.6859327223320939E+00    2.0908475002934517E+00
O    3.7724126920716263E+00    1.2107291686118611E+01    8.6205990988999694E+00
O    6.4253612010426098E+00    3.6667844669336351E+00    2.7875787966085759E+00
O    1.9996801569167453E+00    1.8525818618606278E+00    4.8671305057776078E+00
O    8.2870264289442623E+00    2.4221945186201599E+00    6.9417301194040339E+00
O    5.7524965525743079E+00    3.3354063225406589E+00    1.2486444073906732E+01
O    1.1313041873264160E+01    5.6568394091370244E+00    2.2481538681309647E+00
O    4.2889086332745698E+00    2.1146774663677452E+00    1.0586400462686870E+01
O    5.3988008779579353E+00    3.3584215761666809E+00    5.4859980676065740E+00
O    6.5093803283315674E+00    1.1870555907452614E+01    7.1448610258286260E-01
O    3.2525927590517614E+00    2.3434818290721267E+00    2.4132514479860223E+00
O    8.0086796499285384E+00    6.3565335203087932E+00    7.4977752039611252E+00
O    5.9288585788257286E+00    6.5082801666041998E+00    1.2195796701642557E+01
O    1.0610385294795645E+01    1.1861264429738579E+01    1.2200574174939971E+01
O    9.3403690756569340E+00    3.6890996107164682E+00    3.5273423653475011E+00
O    1.1111278086578178E+00    5.7890355206451796E+00    6.6473009501981117E+00
O    8.0194995343334661E+00    3.3269739508473073E+00    1.0869758841489830E+01
O    1.2376084676796186E+01    9.6748049821030655E+00    1.1772442429127556E+01
O    4.2098962719503792E+00    7.0914037241391368E+00    8.1403049780540115E+00
O    3.7839656891273981E+00    8.2290488153630967E+00    1.1585038748792662E+01
O    1.1076296436002870E+01    4.5429033328724948E+00    7.8327522122956452E+00
O    1.0435269965490447E+01    8.4217711221835234E+00    1.0328413587523144E+00
O    1.9828015281273699E+00    6.4005825276164670E+00    1.0353823655978497E+01
O    4.7041682767468238E+00    5.6227133611204549E-01    5.6097237226911156E+00
O    8.7178718108892816E+00    1.2242115811187327E+01    8.0976567639232151E+00
O    2.6327341025094997E+00    1.0520521873272742E+01    8.2905623926723612E-02
O    7.2399931187466020E+00    1.0511642196931646E+01    4.2432664330030319E+00
O    2.2807064781618953E+00    2.7612056427328974E-01    1.0807250569989241E+01
O    8.8632061138829172E+00    9.4642072500214536E-01    1.3400856795972329E+00
O    1.9443088048743824E+00    8.0893935868695070E+00    7.5355059867712262E+00
O    9.6598248299586587E+00    8.0355046451627068E+00    9.8565400345211458E+00
O    1.0903669851584361E+01    8.3307153998976435E+00    6.4773146916028468E+00
O    3.5124567442237509E+00    4.8693650210821691E+00    1.5451764009707945E+00
O    7.9775830453592089E+00    8.6026723333304105E+00    1.2050849513770656E+01
O    8.3694035479504549E+00    1.0019371052443086E+01    6.6836141760227745E+00
O    5.6546743218579252E+00    6.0810664230945966E+00    5.5283846573828050E+00
O    1.1742547847645358E+01    1.6241840639034213E+00    5.0859575162073423E+00
O    9.7585719615142263E+00    9.8110347715520518E+00    3.5364867774940976E+00
O    3.9627876574399656E+00    1.0548914651573950E+01    4.6848634346389604E+00
O    9.0110847254973570E-01    6.3699180308684751E+00    4.0614677068442662E+00
O    6.8825857356121523E+00    6.4084220847944611E+00    2.5046902581441302E+00
O    3.8180799995398425E+00    6.6391276583281353E+00    3.7786506828596713E+00
O    6.5639457974900388E+00    8.3081696931558913E+00    8.8142644496197331E+00
O    9.7792965800926268E+00    1.3440562766331393E-01    3.8518038249084676E+00
O    4.1040770115657610E+00    1.1645978558721371E+01    2.2167390496173982E+00
O    5.3225394392113747E+00    8.7370879819812650E+00    2.7520568939069148E+00
O    1.0008064086737157E+01    5.3735087324373181E+00    5.3757728940150056E+00
O    1.2260297782908774E+01    8.6464340629360255E+00    3.9709777917870466E+00
O    2.3431345497117388E+00    1.0747243885368590E+01    6.8128217267251987E+00
O    7.0016612916653909E+00    6.6240597665992118E-01    1.0534341561687867E+01
O    5.1725047982212091E+00    1.0218495319125102E+01    1.0357205957141167E+01
O    1.1186316801594378E+01    5.8851524495734493E+00    1.0299193203866023E+01
O    1.2277001782589629E+01    8.9569716794262320E+00    9.0707884188586849E+00
H    1.2357840653884040E+01    2.3335995753228347E+00    1.1187202568865983E+01
H    1.1946181003855610E+01    1.5338243304136365E+00    9.8820686313881012E+00
H    5.5871540557008199E+00    3.4492983737416454E+00    9.0442905792559092E+00
H    6.8930493554875651E+00    3.0239782285787555E+00    7.9852283560212234E+00
H   -1.4374297116953669E-01    1.5098214846057423E+00    7.5263531243334558E+00
H   -3.8865416711605233E-01    3.0530974755006470E+00    7.9298823362655533E+00
H    1.2176354233154521E+01    2.9746344065074481E+00    1.1924463434417234E+00
H    1.2991627169715153E+01    2.9143170210548299E+00    2.5155346727350567E+00
H    1.1517585159653551E+01    4.3255122446514891E+00    1.1434691026735265E+01
H    1.2784953658522401E+01    5.0635466714143558E+00    1.2040055000815409E+01
H    6.9671401310534913E+00    1.7387343976987351E+00    4.1849967664918157E+00
H    6.2296009063340509E+00    6.8946782722641475E-01    5.1579113656943223E+00
H    7.7273594948729567E+00    7.2216808380980568E+00    5.4888761780280966E+00
H    9.1691701765454994E+00    6.6296086344970462E+00    4.9460727574874914E+00
H    1.2846883768257333E+01    1.1781070688350891E+01    8.9005192602385836E+00
H    1.1983330930255482E+01    1.0563456761595758E+01    8.3168613221537608E+00
H    3.5249173108187866E+00    3.8402074967252906E+00    9.9510006399905553E+00
H    2.4297337650179354E+00    4.9330989925200051E+00    9.5245628999127820E+00
H    2.1731627523296870E+00    4.5583640086440571E+00    6.3013579985292534E+00
H    2.8563500932215131E+00    3.8576048156120262E+00    7.5841394106042408E+00
H    1.1402120515026872E+00    7.1967347480540660E+00    1.1594244541629355E+00
H    2.2451038169247091E+00    6.0044688738679790E+00    1.0028737587414174E+00
H    2.8159635337995890E+00    8.9701748198780411E+00    2.2995199891600588E+00
H    1.3289544665067909E+00    8.9939926467762561E+00    2.8983257079447795E+00
H    4.4550218369063748E+00    1.1540339425003937E+01    9.1644203320317601E+00
H    3.0505860859910885E+00    1.2474023132570373E+01    9.2862357274711869E+00
H    5.8591510063950301E+00    3.4580809397756282E+00    3.6616773633304280E+00
H    5.8328342793246151E+00    3.4003555439700306E+00    1.9823495664217630E+00
H    9.5573469725975524E-01    1.6451477306436260E+00    4.8407733836333531E+00
H    2.2282991647310801E+00    2.4813299829877082E+00    5.6872650230025741E+00
H    8.4431290012365707E+00    1.6050270153557664E+00    7.5442513472480623E+00
H    8.0660702671735987E+00    2.0137128293839566E+00    6.0338191030228963E+00
H    5.2179579256215893E+00    2.8944435585813051E+00    1.1676379626019983E+01
H    6.6808372388707227E+00    3.4137338960718546E+00    1.1974227321955270E+01
H    1.0787628803145306E+01    6.5181395670623736E+00    2.0987991922626157E+00
H    1.1679773573100723E+01    5.3602522151472369E+00    1.3423877172507535E+00
H    3.4353203684189535E+00    1.5422281194349254E+00    1.0899348788954663E+01
H    4.8360131199374665E+00    1.4266306188294062E+00    1.0089887937303288E+01
H    4.3860802582005451E+00    3.3639520802572789E+00    5.6883523933785609E+00
H    5.6851424648153284E+00    4.3694414775810380E+00    5.5473743673643483E+00
H    6.2905172776223237E+00    1.1824099733750247E+01    1.7188529435633264E+00
H    5.6254822935024364E+00    1.2118652077615836E+01    3.2827489265275978E-01
H    3.5448338646071083E+00    1.3905272139795239E+00    2.1815170599099538E+00
H    2.6082617908446157E+00    2.2011793682000200E+00    3.2448585926827596E+00
H    7.1214310944133743E+00    5.8746986475788221E+00    7.5240902705276431E+00
H    8.6555160452205033E+00    5.7349833608735770E+00    7.0296645633644683E+00
H    6.0004465275663845E+00    5.6511979030146327E+00    1.1673025686979498E+01
H    6.2576534574146114E+00    6.3249880564329226E+00    1.3168261180251760E+01
H    1.1110393485507725E+01    1.2636559250997582E+01    1.1695509562619019E+01
H    1.0264574453193266E+01    1.2297166054266832E+01    1.3044673119309911E+01
H    9.9063257583759761E+00    4.0523254539291003E+00    2.7328096710812670E+00
H    8.5320976562308708E+00    3.4662435851511701E+00    2.9418258347993520E+00
H    1.4549325922356811E+00    6.6684406032658572E+00    7.1063381287427960E+00
H    1.0013233336707728E+00    6.1758231958593104E+00    5.6553319488926119E+00
H    7.9834584102614237E+00    3.6965662970351794E+00    9.9295362401113998E+00
H    8.0702893407912040E+00    2.3148727995366118E+00    1.0750118168091111E+01
H    1.1741851247337721E+01    1.0457041172522660E+01    1.2099135806994093E+01
H    1.2145140467197876E+01    8.9346530857758797E+00    1.2412210742862312E+01
H    3.3373535314761873E+00    7.6121200308659160E+00    7.8531045761944256E+00
H    3.8438071109324645E+00    6.2417161568837711E+00    8.6114175129822819E+00
H    3.1132077807647263E+00    7.6196920981174152E+00    1.1070308623799550E+01
H    4.4752997918980757E+00    7.6309327249728840E+00    1.2076616644958657E+01
H    1.1595109347939438E+01    4.9846383472193700E+00    7.0588447442729771E+00
H    1.0300198428128459E+01    4.1359917521747152E+00    7.3179795841162800E+00
H    1.0066803629045250E+01    8.9449101926888481E+00    1.8648409458422595E+00
H    9.5721275817989966E+00    8.2654871620118193E+00    4.9820470823264612E-01
H    1.3188214514381518E+00    6.6901027276290508E+00    9.6503048603173855E+00
H    1.4021624816961507E+00    6.4512365186865530E+00    1.1227722789147329E+01
H    4.1225373888744770E+00    1.3301382656582739E+00    5.2661059713499574E+00
H    4.6863100279908672E+00    6.4323888153894282E-01    6.6181558656212136E+00
H    9.4703533710558983E+00    1.2334177792059750E+01    8.7409520154272489E+00
H    8.8486737260987631E+00    1.1353175343936323E+01    7.5414016813712319E+00
H    1.7346635260612746E+00    1.0023247752457197E+01    1.4531246290802449E-01
H    3.3374323737188862E+00    9.8445600332824679E+00   -2.3573946363434817E-01
H    7.0505799823406274E+00    1.1506005604268152E+01    4.1255571139610607E+00
H    6.4716019298293901E+00    9.9354966266942260E+00    3.7910911532790394E+00
H    1.3268589592365663E+00    5.8377393430215130E-01    1.1128929736798993E+01
H    2.5223619020797239E+00   -5.4513600115430805E-01    1.1460522258350915E+01
H    8.7695024945571021E+00    1.8730405160137751E+00    9.9029984538977256E-01
H    8.0908940305268953E+00    3.3984351975182109E-01    9.9164117999995982E-01
H    1.1203607709236238E+00    8.3716512006959540E+00    8.1792323344820055E+00
H    2.0883187077769958E+00    8.9941496096238822E+00    7.0138877035398703E+00
H    8.9092455661178835E+00    7.7938840102048879E+00    9.2222118549470498E+00
H    9.0650442925877179E+00    8.4492400512120849E+00    1.0614283870982039E+01
H    1.0125293357176472E+01    7.6972294325251074E+00    6.4507709233868198E+00
H    1.0499855152536572E+01    9.1992705817145186E+00    6.1555311709838652E+00
H    3.4971231604232051E+00    3.9586904012079813E+00    2.1122844778209293E+00
H    4.0584146620664026E+00    4.5845739999390798E+00    7.4299547661123821E-01
H    7.3547300979713039E+00    9.3907717765819569E+00    1.2034662471094089E+01
H    7.3341917810682276E+00    7.7711469163735671E+00    1.2054219542749960E+01
H    7.8271815569080463E+00    1.0161811172290459E+01    5.7814619639484013E+00
H    7.7120113817883214E+00    9.5092512996366096E+00    7.2843726304680807E+00
H    5.2899463871867587E+00    6.4889429596070416E+00    6.3929757321024354E+00
H    4.8678252868832912E+00    6.3175211180851765E+00    4.8313586361443450E+00
H    1.1521862541305472E+01    2.1923283626800569E+00    4.2496614328177005E+00
H    1.1222791846958003E+01    7.8414795598388720E-01    4.7829538343864488E+00
H    8.8119942350205562E+00    9.6778779613702799E+00    3.9666686831528968E+00
H    9.9342844970884432E+00    1.0814156988790014E+01    3.7816372858607998E+00
H    3.1082289528956148E+00    1.0546326407174272E+01    5.2868803913855791E+00
H    4.3132584907105134E+00    1.1455620653057977E+01    5.0610780320733459E+00
H    4.2220406784292375E-01    7.3045102192444551E+00    3.8013135649931749E+00
H    2.9772343931235473E-01    5.7724401932039813E+00    3.4526995513601757E+00
H    7.5860591209734229E+00    6.5678847601542634E+00    3.2915836809339227E+00
H    6.6758385347280109E+00    5.3831754309178841E+00    2.5200133494029697E+00
H    3.8532534172196424E+00    6.3060046348699981E+00    2.8123783749704718E+00
H    2.7953246440736046E+00    6.5485847389779872E+00    3.9537741358608112E+00
H    5.5553176437611542E+00    8.0120599991632826E+00    8.6583941104706490E+00
H    6.9993930795494412E+00    7.4780238970676054E+00    8.4104344163929845E+00
H    9.5571588990611325E+00    7.3280446145744327E-01    3.0174818797267626E+00
H    8.9237164310789314E+00    1.3437510586283596E-01    4.4076447871973370E+00
H    3.8482457315689169E+00    1.1174438455170460E+01    1.3441470566656859E+00
H    3.9626056228590798E+00    1.0964278466897220E+01    3.0102551897945249E+00
H    5.9449661422364217E+00    7.8891857853084790E+00    2.7995741535961356E+00
H    4.7652120121286545E+00    8.7229381074886447E+00    3.5906717261645813E+00
H    1.0905815782848808E+01    5.5302201800699207E+00    4.9342869455825520E+00
H    9.5033245323303497E+00    4.6732708376733907E+00    4.7171193166484811E+00
H    1.1491942104116397E+01    9.0018887406793713E+00    3.3983649908375755E+00
H    1.1959903629041452E+01    8.7851547644289116E+00    4.9401026898666451E+00
H    2.9404439844273451E+00    1.1333326721638919E+01    7.4881123877729641E+00
H    1.3993518978819721E+00    1.1120275827042875E+01    6.8063456551224517E+00
H    7.2181951384374496E+00    1.2809608485369303E-01    9.7032371258678616E+00
H    7.1648660378584816E+00    1.0772078745156230E-01    1.1367500988399954E+01
H    4.8113412051060207E+00    9.3237474535605251E+00    1.0837702423611995E+01
H    6.0816481698035183E+00    9.8060697913092980E+00    1.0186927365163443E+01
H    1.0565212262639420E+01    6.7306908548567810E+00    1.0314443980527509E+01
H    1.1239043366237730E+01    5.5938377372089780E+00    9.3143651163975285E+00
H    1.2188456954751473E+01    8.9927460848968703E+00    1.0127821223536493E+01
H    1.1415764242459296E+01    8.6329965781005669E+00    8.6365688433566348E+00
     &END COORD
     &VELOCITY
           2.4353373553012928E-04   -1.2006097602648019E-04    8.6380096426579757E-05
           5.1311970177946888E-05   -1.2708266195176255E-06   -1.4048482609919078E-05
          -1.3298767757324997E-04   -8.3910828184310723E-05   -1.7227772179746525E-04
           3.2311111387278452E-04   -2.8974228281178040E-04    2.2815855771170132E-04
           3.6807112799828751E-04   -1.6540691871993495E-04    8.2168021723541887E-05
           8.6843810078783033E-05   -1.6733145785159469E-04    2.3233906169706022E-04
          -1.9144732815352500E-04    3.6490306372299198E-05    1.7692428816792742E-04
          -2.7339212136998775E-04   -2.0181330311518809E-06   -2.5185283188649307E-04
          -2.9114797156635261E-04    1.4202524657107882E-04   -9.4207613536383890E-05
           4.9604684382253209E-05    1.9764986075578513E-04   -3.9675655900573785E-05
          -1.0338266296086988E-04    2.5533554886964579E-04   -1.7753567723183475E-04
           1.2393271803113183E-04   -5.1522817962259326E-05    2.4869105054739211E-04
           3.7171385612153090E-05    1.3912087635279273E-04   -2.6001104941667419E-04
          -9.0584380440127682E-05   -5.4256969622310838E-05    1.3571849163638157E-04
          -1.3532069033436093E-05    2.9312535024554392E-04   -1.1035216194564915E-04
           3.4365663856462248E-04    1.2592891247510955E-04    1.2984947778140691E-04
           3.1061310688426781E-05   -2.1491061234643112E-04    1.3642911352169747E-04
          -1.1197980598590751E-04    8.8708519143739992E-05    8.1551359030605260E-05
           7.2553977151847075E-05   -7.4882564046986248E-05   -3.7593240427929645E-05
          -3.9311008768867539E-05    7.7794970775630734E-05   -4.9503853884463289E-05
           1.3050850736076491E-04    3.2997372841549636E-05    2.3384938882122845E-04
          -2.3506710107485692E-04   -1.3038351983252758E-04   -7.8872779759944967E-05
           2.2656471395895821E-04    3.8984618362844524E-06   -1.0674489559808768E-04
          -4.8910812396601208E-04   -8.8250996373685927E-05    4.1168871694274599E-05
          -2.3516505104445516E-04    3.0141522874793818E-05   -4.3307021531104052E-05
           2.3874077440285435E-04    1.6479626533130157E-04   -6.5961174424037592E-06
           2.1570400440056923E-06   -3.6687604474040022E-04    1.9056449024360583E-05
           1.5263290745834923E-04   -4.5423683353643340E-05   -4.7828240980888771E-05
          -2.4361660474370411E-04   -1.5799538490157052E-04    1.4701044899574105E-04
          -4.6332302279203339E-05    6.6958418739577916E-05   -1.4093723621145325E-04
           7.0402526346022358E-05    1.4787938508818124E-04    2.3294646136728949E-04
          -1.0541845847167764E-04    9.0959878371766822E-05    1.4239486316520731E-04
           3.9447066267642796E-04    6.7697585285813005E-05    1.1078543439974475E-04
          -7.7642050402735736E-05   -1.2536442818214001E-04   -1.9896428319811675E-04
           4.0834731830655395E-04    1.4767279244997598E-04    2.0697580190875211E-05
          -2.3059415805115594E-04   -1.2069261926304722E-04    1.1528847271958999E-04
          -2.2453224222954331E-04    3.2508315209881476E-04   -1.1011175869248776E-04
          -2.5223464561037702E-05    3.9102949516693625E-04    1.6353834116275928E-04
           2.2717843314131187E-05   -6.2765751652204824E-06    4.4671040027936579E-05
          -2.2749659830988348E-04   -6.9576305493176440E-06    6.3788388338056258E-05
          -7.5841302719237909E-05    8.7087799013160392E-05   -2.6939094015322013E-04
          -1.5166914071940436E-04   -1.6482446184525875E-04   -8.8619423401022616E-05
           8.3255811676387538E-06   -5.3065384630359641E-05   -7.5044278374864076E-05
           6.6403553283014694E-05    1.1865592146433206E-04   -1.6876922794122382E-04
          -3.6854176965785102E-04   -4.4916679521538700E-04   -7.2212204720938910E-05
          -1.2514834926135329E-04   -2.1658705550443183E-04    1.4279407554812301E-05
           1.5301292386858087E-04    7.8212466736181851E-05   -2.6042789655600335E-04
           1.1597437780890768E-04    1.3153166326559457E-04    1.9714489346774322E-05
          -2.7586288469428503E-05    4.9135802992928589E-05   -8.2847135186230755E-05
           1.7533037836788917E-04   -1.0200057778788058E-04   -1.5955910870052455E-05
           9.1305293485866290E-06   -1.7063363096572322E-04   -1.2704533408519557E-04
           2.0532414019976068E-04   -1.8523108331171457E-04    1.5576953260101946E-04
          -9.5082342049153401E-05    3.8898283928882644E-04    6.8143354600936940E-05
          -3.3468517683968859E-05    1.1413973594250949E-04    4.8372670605679267E-05
          -3.2167308794234874E-04   -6.7373694362838474E-05   -3.3440505798326204E-04
          -1.0565699375421377E-04   -1.8612919959385245E-04   -4.1185047196039292E-05
           3.0227443464014939E-04   -1.9476823292097488E-08   -4.0898192669373173E-05
           3.4132859750906920E-04   -7.5666618758806742E-05    3.1369871723694280E-04
           4.8774504475851886E-06    9.5432986768383791E-05    4.0463993790840726E-05
          -7.3525642130726316E-05   -1.1023344657361262E-04   -1.6990266178474472E-04
          -9.5305467321163493E-05    1.5924492797661903E-04    1.0050784054675959E-04
           2.9577992716403226E-04   -2.0302338272604252E-04   -3.8000268561383858E-06
           3.3426751499315794E-05    2.9960856876730654E-05    2.2957098675612224E-05
           2.1247046209635242E-04   -1.8773508816335733E-04   -7.1323934923190685E-05
          -4.5158839413962903E-04   -3.6143060081417254E-05   -6.1976176342065767E-04
           9.6706711087700729E-04   -4.1494673938472258E-04   -1.4270244721953274E-03
           7.4657709737243868E-04    7.4979183340213797E-04   -2.9716006617108430E-05
           1.1944835029831823E-03   -2.4887952170170758E-04   -4.6965328169235970E-04
           3.3415678177568434E-04   -4.4057529884641421E-04   -4.5347033642461980E-04
           1.1012796130041118E-03    2.9083917953417289E-04   -1.2194190254892017E-03
           2.2415342342954655E-04    1.5937251548238053E-03   -3.7781211910989821E-04
           1.0073465758384760E-03   -6.8157982680845848E-04    2.6183752026076926E-04
          -6.9769183577964464E-05    2.4841597099773598E-05   -1.3349984294752968E-04
          -6.5395783737804043E-04   -1.1729839036103782E-04    1.7209949835512279E-04
          -6.3912725033912743E-04   -9.4833908161880251E-04   -2.5753189732245844E-04
          -3.9187509730278028E-04   -2.4417797176899268E-04   -5.0822500047706138E-04
           2.8904185309438075E-04   -2.0455475311575541E-03   -7.4488003306553518E-04
           3.8533435936952424E-04   -1.5649598638774066E-03   -8.1999331590946925E-04
           6.6163782210629566E-04   -2.0530137991617932E-04   -4.7022778536463805E-04
          -4.8571775202990090E-05   -1.4283455067344382E-03    8.4970777265137452E-04
          -5.1040502071355860E-04    9.0124041076240801E-04   -4.3717828655610261E-04
           2.7962496774351176E-04    1.1112791910213557E-04   -5.6980553870463813E-04
          -1.5080494509685108E-03    7.3672779722606095E-04   -5.7541529120457637E-06
           2.4475429621252480E-04    9.7437756642872436E-04   -4.8339679943685827E-04
          -8.5981680085674912E-05    5.9512037269510306E-04   -4.8949501758637442E-05
          -6.8266467564106104E-04   -5.5567223334339908E-04    7.1350489602735453E-04
           4.8033714483104739E-05    6.5011279411297741E-04   -7.7943973950209415E-04
           8.0491911113823181E-05   -7.8343749754779214E-04    7.2435736497929951E-04
           2.5839724570045906E-04    7.5578985198652857E-05   -5.8507007759208644E-04
           3.2468632066668903E-04   -2.7324024725663954E-04    2.5249479693868185E-04
          -1.0539062839320158E-03    5.0616494373597199E-04    7.1049452486485795E-04
           8.0541579376863022E-04   -1.4428395474024681E-04   -9.1111624630659286E-04
          -9.3901405525707301E-05   -1.7440336409890928E-04   -6.6695306718714937E-04
          -5.9667439631255217E-04    2.1020879938549444E-03   -1.6524975841802856E-04
          -5.9413689338647839E-04   -1.8314218673468947E-04   -3.0878549941832625E-04
          -1.1299139622132015E-04   -1.9706794254821831E-04    5.4164798336468593E-04
           3.7379192865592283E-04   -2.2187500988554460E-04   -3.6215118742742499E-04
          -5.2111287106682577E-04    8.9091209793263845E-04   -5.6207250900054088E-04
           6.7919292603093977E-04    1.3343181456256133E-04   -5.4958333089453158E-04
          -5.0955912343188122E-05   -7.8811310901113921E-04    5.3306738436116954E-04
          -8.4615276359081821E-05   -4.3969810880430620E-04   -1.5061331385174750E-03
           1.9621493945182656E-04    7.0658921103932217E-04    7.9834173947701146E-04
          -3.1086266729791589E-04    7.4710976671242405E-04    4.9983161017267915E-04
          -7.7088036734861685E-04    8.7923123998077111E-04    4.4906439901636075E-04
           4.7843808738122349E-04    2.0885304147902123E-04    9.9081078440155083E-04
           2.7383478091955069E-04   -1.2076470159739145E-05    2.0312636572853357E-03
           2.2238602224599143E-04    4.5732113704314783E-04    2.0297495633779306E-03
          -1.3983314820805104E-04    6.4110517559018865E-04    2.3541721875096035E-04
           1.0634351964389094E-03   -8.1406755448484272E-04    2.5592615930955710E-04
           5.5764666823622728E-04   -2.4944020397068114E-04    1.0095491375831276E-03
           8.2355304835896330E-04    4.6265598282570338E-04    1.0873683440533780E-03
           1.0554542732493172E-03    1.4711843503829442E-03   -1.9257994644022750E-04
          -5.9301436637084729E-04    1.4338243179498709E-03   -1.0518598720333633E-03
           1.7009542630458407E-04   -2.7229621441117815E-04   -1.8275874432877352E-04
          -3.9794180045150495E-04    1.1377334676079172E-03    1.5111872074123227E-04
          -2.1010779019403817E-04    2.5908254733812485E-04    1.2965840741177371E-03
           5.7014687398039153E-04    4.3663748723047052E-04   -1.4622705925086248E-04
           2.7451658005817070E-04   -1.1055104188255703E-04   -2.7011911347831142E-04
          -1.5488517943865270E-03   -4.8268639176919344E-04    1.0661735519862194E-03
           1.1223093818233779E-04    6.1336181166495084E-04   -2.4337739021300223E-04
          -8.4642821009502903E-04    2.7314900748275008E-04    4.4966165017893745E-04
          -9.0281864258872442E-04    4.6471968390784143E-04   -2.6632644266714854E-04
          -1.1909602595219250E-03    3.2546725726936807E-05   -5.5177771591466193E-05
           2.6878284877751698E-04   -1.1019214431029292E-03    6.7804196597505135E-04
           3.1926309390715264E-04    1.0177813137733451E-03   -3.0847823993134806E-04
          -4.2284471691655977E-04    4.3959034011793990E-04   -8.2960000477352402E-04
           4.5763012014328334E-04   -7.2873611065198932E-04   -1.9810871956140431E-04
          -2.5435809608492126E-04   -2.9857092394922074E-04    4.0812967128658439E-04
          -1.7369381695142729E-04    6.5701533357747776E-04    1.2674523034534289E-03
           2.5615963331241450E-04   -1.0911306583610635E-06    1.1679000472556505E-03
          -1.6308109808393085E-05    1.3149337651021647E-03    1.0407917756879190E-03
           8.9763869714357700E-04   -3.3652501426960764E-04    5.8254652396476630E-04
           1.0486726919063027E-03    1.4387708622724856E-04   -1.3227328924919097E-03
          -7.1280006662296862E-04    3.7576614693132912E-04   -7.8229807967923452E-04
          -4.9597517518636661E-05    2.0943390439645254E-05   -3.3577883353588767E-04