 # Version information for this restart file 
 # current date 2023-07-27 13:24:26.697
 # current working dir /mnt/lustre/indy2lfs/work/tc047/tc047/mrnuff-cirrus/cp2k/nuff-benchmarks/H2O-64-2node
 # Program compiled at                              Thu Jun 30 12:29:55 BST 2022
 # Program compiled on                                             cirrus-login3
 # Program compiled for                                             Cirrus-intel
 # Source code revision number                                       git:e635599
 &GLOBAL
   PRINT_LEVEL  LOW
   PROJECT_NAME H2O-64
   RUN_TYPE  MD
 &END GLOBAL
 &MOTION
   &MD
     ENSEMBLE  NVE
     STEPS  10
     TIMESTEP     4.9999999999999994E-01
     STEP_START_VAL  10
     TIME_START_VAL     4.9999999999999982E+00
     ECONS_START_VAL    -1.1007588181100461E+03
     TEMPERATURE     3.0000000000000000E+02
     &AVERAGES  T
       &RESTART_AVERAGES
         ITIMES_START  1
         AVECPU     5.0388924901140850E+00
         AVEHUGONIOT     0.0000000000000000E+00
         AVETEMP_BARO     0.0000000000000000E+00
         AVEPOT    -1.1010668160173029E+03
         AVEKIN     3.0070034549349089E-01
         AVETEMP     3.3142598856021175E+02
         AVEKIN_QM     0.0000000000000000E+00
         AVETEMP_QM     0.0000000000000000E+00
         AVEVOL     1.2909542132085598E+04
         AVECELL_A     2.3458682268415796E+01
         AVECELL_B     2.3458682268415796E+01
         AVECELL_C     2.3458682268415796E+01
         AVEALPHA     9.0000000000000000E+01
         AVEBETA     9.0000000000000000E+01
         AVEGAMMA     9.0000000000000000E+01
         AVE_ECONS    -1.0896372794303014E+01
         AVE_PRESS     0.0000000000000000E+00
         AVE_PXX     0.0000000000000000E+00
       &END RESTART_AVERAGES
     &END AVERAGES
   &END MD
 &END MOTION
 &FORCE_EVAL
   METHOD  QS
   &DFT
     BASIS_SET_FILE_NAME GTH_BASIS_SETS
     POTENTIAL_FILE_NAME POTENTIAL
     &SCF
       SCF_GUESS  ATOMIC
       &OT  T
         MINIMIZER  DIIS
       &END OT
       &PRINT
         &RESTART  OFF
         &END RESTART
       &END PRINT
     &END SCF
     &QS
       EPS_DEFAULT     9.9999999999999998E-13
       EXTRAPOLATION  PS
       EXTRAPOLATION_ORDER  3
     &END QS
     &MGRID
       CUTOFF     2.8000000000000000E+02
       REL_CUTOFF     3.0000000000000000E+01
     &END MGRID
     &XC
       DENSITY_CUTOFF     1.0000000000000000E-10
       GRADIENT_CUTOFF     1.0000000000000000E-10
       TAU_CUTOFF     1.0000000000000000E-10
       &XC_FUNCTIONAL  NO_SHORTCUT
         &PADE  T
         &END PADE
       &END XC_FUNCTIONAL
     &END XC
   &END DFT
   &SUBSYS
     &CELL
       A     1.2413800000000002E+01    0.0000000000000000E+00    0.0000000000000000E+00
       B     0.0000000000000000E+00    1.2413800000000002E+01    0.0000000000000000E+00
       C     0.0000000000000000E+00    0.0000000000000000E+00    1.2413800000000002E+01
       MULTIPLE_UNIT_CELL  1 1 1
     &END CELL
     &COORD
O    1.2265692089484165E+01    1.3554390129941221E+00    1.0875425741210551E+01
O    6.4523125712781564E+00    3.7059030017231018E+00    8.6472703373291875E+00
O    7.7679434805531217E-02    2.1684363409618341E+00    8.2608499727946807E+00
O    1.2086328917682220E+01    2.6383236471457532E+00    2.1708319631148369E+00
O    1.2290563434792508E+01    4.1705987030845346E+00    1.2102197401501323E+01
O    7.2035546534507935E+00    9.4146440982923829E-01    4.7596753308529678E+00
O    8.3332259924712258E+00    7.2077559238210389E+00    4.6827252174469400E+00
O    1.2331820354972656E+01    1.1521085584601206E+01    8.0815267568454363E+00
O    3.2742305248728774E+00    4.4591006237000981E+00    9.1745323461746473E+00
O    2.8601657947012482E+00    3.7871321994318703E+00    6.5410904120530775E+00
O    1.3797135980522313E+00    6.3917883108529487E+00    5.6509499049335987E-01
O    1.8717778176466728E+00    8.6859327223321543E+00    2.0908475002933855E+00
O    3.7724126920715859E+00    1.2107291686118609E+01    8.6205990989000156E+00
O    6.4253612010426169E+00    3.6667844669336489E+00    2.7875787966086158E+00
O    1.9996801569167539E+00    1.8525818618606926E+00    4.8671305057775731E+00
O    8.2870264289442712E+00    2.4221945186201097E+00    6.9417301194040295E+00
O    5.7524965525742475E+00    3.3354063225406660E+00    1.2486444073906730E+01
O    1.1313041873264376E+01    5.6568394091371461E+00    2.2481538681310029E+00
O    4.2889086332746453E+00    2.1146774663677337E+00    1.0586400462686996E+01
O    5.3988008779579166E+00    3.3584215761666134E+00    5.4859980676065376E+00
O    6.5093803283315284E+00    1.1870555907452296E+01    7.1448610258287160E-01
O    3.2525927590518600E+00    2.3434818290720671E+00    2.4132514479860294E+00
O    8.0086796499285047E+00    6.3565335203088651E+00    7.4977752039607104E+00
O    5.9288585788256087E+00    6.5082801666041759E+00    1.2195796701642609E+01
O    1.0610385294795741E+01    1.1861264429738402E+01    1.2200574174939955E+01
O    9.3403690756568736E+00    3.6890996107165068E+00    3.5273423653475011E+00
O    1.1111278086578864E+00    5.7890355206452240E+00    6.6473009501981304E+00
O    8.0194995343335034E+00    3.3269739508473113E+00    1.0869758841489839E+01
O    1.2376084676796399E+01    9.6748049821030175E+00    1.1772442429127558E+01
O    4.2098962719503259E+00    7.0914037241390639E+00    8.1403049780540861E+00
O    3.7839656891274061E+00    8.2290488153631092E+00    1.1585038748792865E+01
O    1.1076296436002897E+01    4.5429033328724682E+00    7.8327522122955635E+00
O    1.0435269965490516E+01    8.4217711221834559E+00    1.0328413587523027E+00
O    1.9828015281274323E+00    6.4005825276166313E+00    1.0353823655978625E+01
O    4.7041682767468114E+00    5.6227133611207691E-01    5.6097237226910730E+00
O    8.7178718108893936E+00    1.2242115811187359E+01    8.0976567639233465E+00
O    2.6327341025094531E+00    1.0520521873272548E+01    8.2905623926731037E-02
O    7.2399931187467210E+00    1.0511642196931634E+01    4.2432664330029359E+00
O    2.2807064781618416E+00    2.7612056427322035E-01    1.0807250569989113E+01
O    8.8632061138830132E+00    9.4642072500217211E-01    1.3400856795973470E+00
O    1.9443088048743993E+00    8.0893935868696509E+00    7.5355059867710699E+00
O    9.6598248299588683E+00    8.0355046451626997E+00    9.8565400345212471E+00
O    1.0903669851584421E+01    8.3307153998977572E+00    6.4773146916025919E+00
O    3.5124567442237522E+00    4.8693650210821717E+00    1.5451764009707958E+00
O    7.9775830453592054E+00    8.6026723333303412E+00    1.2050849513770721E+01
O    8.3694035479504283E+00    1.0019371052442850E+01    6.6836141760226484E+00
O    5.6546743218580149E+00    6.0810664230946996E+00    5.5283846573827899E+00
O    1.1742547847645376E+01    1.6241840639034018E+00    5.0859575162073272E+00
O    9.7585719615143116E+00    9.8110347715521211E+00    3.5364867774940416E+00
O    3.9627876574399923E+00    1.0548914651573902E+01    4.6848634346389346E+00
O    9.0110847254977799E-01    6.3699180308684724E+00    4.0614677068442697E+00
O    6.8825857356121443E+00    6.4084220847945330E+00    2.5046902581441302E+00
O    3.8180799995398522E+00    6.6391276583281211E+00    3.7786506828596749E+00
O    6.5639457974899829E+00    8.3081696931558024E+00    8.8142644496197171E+00
O    9.7792965800925327E+00    1.3440562766331446E-01    3.8518038249085320E+00
O    4.1040770115655789E+00    1.1645978558721463E+01    2.2167390496174546E+00
O    5.3225394392113703E+00    8.7370879819812473E+00    2.7520568939068899E+00
O    1.0008064086737237E+01    5.3735087324373403E+00    5.3757728940150020E+00
O    1.2260297782908765E+01    8.6464340629359988E+00    3.9709777917869928E+00
O    2.3431345497116878E+00    1.0747243885368571E+01    6.8128217267253870E+00
O    7.0016612916654148E+00    6.6240597665992096E-01    1.0534341561687938E+01
O    5.1725047982212562E+00    1.0218495319125198E+01    1.0357205957141170E+01
O    1.1186316801594263E+01    5.8851524495734466E+00    1.0299193203865933E+01
O    1.2277001782589632E+01    8.9569716794262302E+00    9.0707884188588057E+00
H    1.2357840653884022E+01    2.3335995753231078E+00    1.1187202568865548E+01
H    1.1946181003855232E+01    1.5338243304133170E+00    9.8820686313884991E+00
H    5.5871540557013359E+00    3.4492983737411458E+00    9.0442905792565309E+00
H    6.8930493554863244E+00    3.0239782285785530E+00    7.9852283560207269E+00
H   -1.4374297117018256E-01    1.5098214846050240E+00    7.5263531243344977E+00
H   -3.8865416711626261E-01    3.0530974755010560E+00    7.9298823362666369E+00
H    1.2176354233155509E+01    2.9746344065054524E+00    1.1924463434414159E+00
H    1.2991627169714969E+01    2.9143170210551115E+00    2.5155346727350767E+00
H    1.1517585159654724E+01    4.3255122446512146E+00    1.1434691026735134E+01
H    1.2784953658522651E+01    5.0635466714139650E+00    1.2040055000812350E+01
H    6.9671401310543484E+00    1.7387343976995515E+00    4.1849967664928309E+00
H    6.2296009063342348E+00    6.8946782722603961E-01    5.1579113656941082E+00
H    7.7273594948724469E+00    7.2216808380973019E+00    5.4888761780281534E+00
H    9.1691701765448865E+00    6.6296086344961811E+00    4.9460727574871077E+00
H    1.2846883768257413E+01    1.1781070688351518E+01    8.9005192602378091E+00
H    1.1983330930255887E+01    1.0563456761595665E+01    8.3168613221541090E+00
H    3.5249173108191569E+00    3.8402074967258719E+00    9.9510006399909585E+00
H    2.4297337650178839E+00    4.9330989925201081E+00    9.5245628999122527E+00
H    2.1731627523289161E+00    4.5583640086438750E+00    6.3013579985295181E+00
H    2.8563500932219239E+00    3.8576048156126919E+00    7.5841394106041840E+00
H    1.1402120515025580E+00    7.1967347480541655E+00    1.1594244541628069E+00
H    2.2451038169243933E+00    6.0044688738678378E+00    1.0028737587420460E+00
H    2.8159635337997733E+00    8.9701748198764033E+00    2.2995199891603186E+00
H    1.3289544665074431E+00    8.9939926467752045E+00    2.8983257079455615E+00
H    4.4550218369064138E+00    1.1540339425004031E+01    9.1644203320317743E+00
H    3.0505860859911009E+00    1.2474023132569991E+01    9.2862357274716398E+00
H    5.8591510063948053E+00    3.4580809397756855E+00    3.6616773633302686E+00
H    5.8328342793250290E+00    3.4003555439695994E+00    1.9823495664215782E+00
H    9.5573469725991200E-01    1.6451477306437077E+00    4.8407733836327402E+00
H    2.2282991647312382E+00    2.4813299829869266E+00    5.6872650230029418E+00
H    8.4431290012368905E+00    1.6050270153556208E+00    7.5442513472477328E+00
H    8.0660702671742790E+00    2.0137128293842723E+00    6.0338191030226485E+00
H    5.2179579256216684E+00    2.8944435585817647E+00    1.1676379626019642E+01
H    6.6808372388706339E+00    3.4137338960717263E+00    1.1974227321955180E+01
H    1.0787628803144504E+01    6.5181395670617732E+00    2.0987991922620730E+00
H    1.1679773573100441E+01    5.3602522151471499E+00    1.3423877172504328E+00
H    3.4353203684187408E+00    1.5422281194350014E+00    1.0899348788953571E+01
H    4.8360131199378165E+00    1.4266306188297164E+00    1.0089887937303253E+01
H    4.3860802582006322E+00    3.3639520802572411E+00    5.6883523933799740E+00
H    5.6851424648150086E+00    4.3694414775810300E+00    5.5473743673642213E+00
H    6.2905172776221772E+00    1.1824099733751817E+01    1.7188529435633191E+00
H    5.6254822935028344E+00    1.2118652077617133E+01    3.2827489265260673E-01
H    3.5448338646068107E+00    1.3905272139798053E+00    2.1815170599094760E+00
H    2.6082617908445815E+00    2.2011793682001337E+00    3.2448585926826143E+00
H    7.1214310944136923E+00    5.8746986475783913E+00    7.5240902705289310E+00
H    8.6555160452201605E+00    5.7349833608725911E+00    7.0296645633651744E+00
H    6.0004465275675889E+00    5.6511979030147428E+00    1.1673025686979329E+01
H    6.2576534574150626E+00    6.3249880564329999E+00    1.3168261180251822E+01
H    1.1110393485507249E+01    1.2636559250997600E+01    1.1695509562619110E+01
H    1.0264574453193358E+01    1.2297166054266640E+01    1.3044673119310026E+01
H    9.9063257583755764E+00    4.0523254539292823E+00    2.7328096710809962E+00
H    8.5320976562308619E+00    3.4662435851509170E+00    2.9418258347994524E+00
H    1.4549325922342251E+00    6.6684406032659780E+00    7.1063381287433129E+00
H    1.0013233336703022E+00    6.1758231958596124E+00    5.6553319488930516E+00
H    7.9834584102622204E+00    3.6965662970350808E+00    9.9295362401114229E+00
H    8.0702893407913905E+00    2.3148727995366216E+00    1.0750118168091026E+01
H    1.1741851247337582E+01    1.0457041172522452E+01    1.2099135806993838E+01
H    1.2145140467196953E+01    8.9346530857758317E+00    1.2412210742861706E+01
H    3.3373535314762020E+00    7.6121200308660031E+00    7.8531045761943465E+00
H    3.8438071109327114E+00    6.2417161568843351E+00    8.6114175129829409E+00
H    3.1132077807654639E+00    7.6196920981173921E+00    1.1070308623798281E+01
H    4.4752997918984185E+00    7.6309327249726397E+00    1.2076616644958472E+01
H    1.1595109347939974E+01    4.9846383472193141E+00    7.0588447442730340E+00
H    1.0300198428128054E+01    4.1359917521749248E+00    7.3179795841169266E+00
H    1.0066803629045001E+01    8.9449101926894574E+00    1.8648409458422253E+00
H    9.5721275817995100E+00    8.2654871620115458E+00    4.9820470823224572E-01
H    1.3188214514377490E+00    6.6901027276283669E+00    9.6503048603179185E+00
H    1.4021624816951439E+00    6.4512365186851541E+00    1.1227722789147094E+01
H    4.1225373888741847E+00    1.3301382656582328E+00    5.2661059713503580E+00
H    4.6863100279906940E+00    6.4323888153820996E-01    6.6181558656212864E+00
H    9.4703533710561381E+00    1.2334177792060478E+01    8.7409520154272986E+00
H    8.8486737260994843E+00    1.1353175343936973E+01    7.5414016813707203E+00
H    1.7346635260607921E+00    1.0023247752458225E+01    1.4531246290745153E-01
H    3.3374323737187783E+00    9.8445600332821073E+00   -2.3573946363355147E-01
H    7.0505799823402944E+00    1.1506005604268191E+01    4.1255571139617162E+00
H    6.4716019298288154E+00    9.9354966266942064E+00    3.7910911532799449E+00
H    1.3268589592367797E+00    5.8377393430352731E-01    1.1128929736798590E+01
H    2.5223619020796519E+00   -5.4513600115383698E-01    1.1460522258351455E+01
H    8.7695024945571607E+00    1.8730405160135013E+00    9.9029984538955240E-01
H    8.0908940305274015E+00    3.3984351975214838E-01    9.9164117999819967E-01
H    1.1203607709232373E+00    8.3716512006956538E+00    8.1792323344821067E+00
H    2.0883187077774092E+00    8.9941496096242588E+00    7.0138877035404512E+00
H    8.9092455661183667E+00    7.7938840102033256E+00    9.2222118549462575E+00
H    9.0650442925875012E+00    8.4492400512123975E+00    1.0614283870981696E+01
H    1.0125293357177322E+01    7.6972294325243249E+00    6.4507709233873793E+00
H    1.0499855152535009E+01    9.1992705817142166E+00    6.1555311709852916E+00
H    3.4971231604233175E+00    3.9586904012080630E+00    2.1122844778210301E+00
H    4.0584146620661876E+00    4.5845739999393862E+00    7.4299547661108645E-01
H    7.3547300979716947E+00    9.3907717765823371E+00    1.2034662471092759E+01
H    7.3341917810681743E+00    7.7711469163732332E+00    1.2054219542748948E+01
H    7.8271815569080943E+00    1.0161811172290538E+01    5.7814619639484972E+00
H    7.7120113817878533E+00    9.5092512996370342E+00    7.2843726304681216E+00
H    5.2899463871858039E+00    6.4889429596064376E+00    6.3929757321023848E+00
H    4.8678252868828569E+00    6.3175211180848558E+00    4.8313586361447429E+00
H    1.1521862541305609E+01    2.1923283626802088E+00    4.2496614328175308E+00
H    1.1222791846957810E+01    7.8414795598395237E-01    4.7829538343864790E+00
H    8.8119942350199540E+00    9.6778779613707098E+00    3.9666686831522346E+00
H    9.9342844970889352E+00    1.0814156988789705E+01    3.7816372858614211E+00
H    3.1082289528958285E+00    1.0546326407174112E+01    5.2868803913855524E+00
H    4.3132584907108082E+00    1.1455620653057620E+01    5.0610780320737510E+00
H    4.2220406784312475E-01    7.3045102192442180E+00    3.8013135649927907E+00
H    2.9772343931260153E-01    5.7724401932037264E+00    3.4526995513605008E+00
H    7.5860591209737223E+00    6.5678847601541941E+00    3.2915836809335461E+00
H    6.6758385347277311E+00    5.3831754309181088E+00    2.5200133494030204E+00
H    3.8532534172196993E+00    6.3060046348697627E+00    2.8123783749704812E+00
H    2.7953246440735753E+00    6.5485847389773486E+00    3.9537741358609502E+00
H    5.5553176437610778E+00    8.0120599991636414E+00    8.6583941104697981E+00
H    6.9993930795491996E+00    7.4780238970672732E+00    8.4104344163935885E+00
H    9.5571588990614522E+00    7.3280446145744538E-01    3.0174818797268457E+00
H    8.9237164310788231E+00    1.3437510586320037E-01    4.4076447871971576E+00
H    3.8482457315703793E+00    1.1174438455170106E+01    1.3441470566654088E+00
H    3.9626056228598276E+00    1.0964278466896555E+01    3.0102551897942424E+00
H    5.9449661422363258E+00    7.8891857853080554E+00    2.7995741535961969E+00
H    4.7652120121281945E+00    8.7229381074885044E+00    3.5906717261641963E+00
H    1.0905815782848952E+01    5.5302201800698763E+00    4.9342869455827909E+00
H    9.5033245323303248E+00    4.6732708376734342E+00    4.7171193166487928E+00
H    1.1491942104116411E+01    9.0018887406801404E+00    3.3983649908382310E+00
H    1.1959903629042540E+01    8.7851547644286239E+00    4.9401026898668450E+00
H    2.9404439844275077E+00    1.1333326721639123E+01    7.4881123877729907E+00
H    1.3993518978820390E+00    1.1120275827043095E+01    6.8063456551221684E+00
H    7.2181951384365748E+00    1.2809608485404053E-01    9.7032371258675791E+00
H    7.1648660378582871E+00    1.0772078745185580E-01    1.1367500988399916E+01
H    4.8113412051061486E+00    9.3237474535602338E+00    1.0837702423611583E+01
H    6.0816481698035547E+00    9.8060697913090955E+00    1.0186927365163543E+01
H    1.0565212262639832E+01    6.7306908548570670E+00    1.0314443980527287E+01
H    1.1239043366237427E+01    5.5938377372091734E+00    9.3143651163977168E+00
H    1.2188456954751066E+01    8.9927460848958418E+00    1.0127821223536126E+01
H    1.1415764242460268E+01    8.6329965780993891E+00    8.6365688433561552E+00
     &END COORD
     &VELOCITY
           2.4353373553385153E-04   -1.2006097602643113E-04    8.6380096428360153E-05
           5.1311970177829123E-05   -1.2708266184124622E-06   -1.4048482609600635E-05
          -1.3298767757318020E-04   -8.3910828183875253E-05   -1.7227772180006138E-04
           3.2311111387380909E-04   -2.8974228281113189E-04    2.2815855771189897E-04
           3.6807112799637352E-04   -1.6540691871593264E-04    8.2168021722852145E-05
           8.6843810078503824E-05   -1.6733145785218415E-04    2.3233906169735889E-04
          -1.9144732815316553E-04    3.6490306373073353E-05    1.7692428816931002E-04
          -2.7339212137363148E-04   -2.0181330316815526E-06   -2.5185283188739930E-04
          -2.9114797156604074E-04    1.4202524657027084E-04   -9.4207613534412593E-05
           4.9604684382823939E-05    1.9764986075629552E-04   -3.9675655903378006E-05
          -1.0338266296094705E-04    2.5533554886860045E-04   -1.7753567723203587E-04
           1.2393271803087371E-04   -5.1522817961910429E-05    2.4869105054740106E-04
           3.7171385611460122E-05    1.3912087635301447E-04   -2.6001104941459241E-04
          -9.0584380440261595E-05   -5.4256969622976254E-05    1.3571849163709299E-04
          -1.3532069033121350E-05    2.9312535024606016E-04   -1.1035216194644366E-04
           3.4365663856469978E-04    1.2592891247383697E-04    1.2984947778145082E-04
           3.1061310687384151E-05   -2.1491061234646131E-04    1.3642911352153739E-04
          -1.1197980598328203E-04    8.8708519144573228E-05    8.1551359031549342E-05
           7.2553977153057980E-05   -7.4882564047003107E-05   -3.7593240426210100E-05
          -3.9311008769179532E-05    7.7794970775699960E-05   -4.9503853884654123E-05
           1.3050850736127145E-04    3.2997372837869854E-05    2.3384938882154333E-04
          -2.3506710107307693E-04   -1.3038351983241179E-04   -7.8872779760055529E-05
           2.2656471395853241E-04    3.8984618353768938E-06   -1.0674489560314691E-04
          -4.8910812396700076E-04   -8.8250996375682770E-05    4.1168871694457443E-05
          -2.3516505104387815E-04    3.0141522872913615E-05   -4.3307021529765361E-05
           2.3874077440099622E-04    1.6479626533209133E-04   -6.5961174435593426E-06
           2.1570400444279937E-06   -3.6687604473994030E-04    1.9056449025626979E-05
           1.5263290745951157E-04   -4.5423683353189331E-05   -4.7828240981167004E-05
          -2.4361660473975387E-04   -1.5799538490196587E-04    1.4701044899541088E-04
          -4.6332302281427871E-05    6.6958418738798022E-05   -1.4093723621031254E-04
           7.0402526346782492E-05    1.4787938508584403E-04    2.3294646136755399E-04
          -1.0541845847075227E-04    9.0959878371530344E-05    1.4239486316531457E-04
           3.9447066267756843E-04    6.7697585283279130E-05    1.1078543439935658E-04
          -7.7642050407113623E-05   -1.2536442817923441E-04   -1.9896428319803416E-04
           4.0834731830566165E-04    1.4767279245066390E-04    2.0697580190210632E-05
          -2.3059415805069450E-04   -1.2069261926229352E-04    1.1528847271967505E-04
          -2.2453224223054196E-04    3.2508315209542219E-04   -1.1011175869236283E-04
          -2.5223464559652356E-05    3.9102949516741872E-04    1.6353834116162881E-04
           2.2717843313816819E-05   -6.2765751651321632E-06    4.4671040024272545E-05
          -2.2749659830842517E-04   -6.9576305488040176E-06    6.3788388337777022E-05
          -7.5841302720066632E-05    8.7087799015492836E-05   -2.6939094015510952E-04
          -1.5166914071321170E-04   -1.6482446184562852E-04   -8.8619423399977418E-05
           8.3255811675360782E-06   -5.3065384628627228E-05   -7.5044278378606538E-05
           6.6403553282869831E-05    1.1865592146386217E-04   -1.6876922794148208E-04
          -3.6854176965753080E-04   -4.4916679521614372E-04   -7.2212204722206343E-05
          -1.2514834926200555E-04   -2.1658705550758710E-04    1.4279407553280776E-05
           1.5301292386952017E-04    7.8212466736983646E-05   -2.6042789655644674E-04
           1.1597437781002222E-04    1.3153166326499764E-04    1.9714489346054090E-05
          -2.7586288467587033E-05    4.9135802993488796E-05   -8.2847135187747906E-05
           1.7533037836736461E-04   -1.0200057778811050E-04   -1.5955910869481738E-05
           9.1305293491409172E-06   -1.7063363096576082E-04   -1.2704533408499074E-04
           2.0532414019994478E-04   -1.8523108331208648E-04    1.5576953260035647E-04
          -9.5082342049693401E-05    3.8898283928679377E-04    6.8143354600806781E-05
          -3.3468517685774875E-05    1.1413973593973272E-04    4.8372670605741514E-05
          -3.2167308794428182E-04   -6.7373694362809960E-05   -3.3440505798182612E-04
          -1.0565699375669249E-04   -1.8612919959311986E-04   -4.1185047194879372E-05
           3.0227443464010142E-04   -1.9476822734364409E-08   -4.0898192669043555E-05
           3.4132859750957427E-04   -7.5666618758526679E-05    3.1369871723638368E-04
           4.8774504484787448E-06    9.5432986767309956E-05    4.0463993791559999E-05
          -7.3525642131858237E-05   -1.1023344657345153E-04   -1.6990266178285466E-04
          -9.5305467322034826E-05    1.5924492797647868E-04    1.0050784054978896E-04
           2.9577992716575745E-04   -2.0302338272561499E-04   -3.8000268562677836E-06
           3.3426751496895767E-05    2.9960856877284454E-05    2.2957098671503691E-05
           2.1247046209554231E-04   -1.8773508816438873E-04   -7.1323934920815537E-05
          -4.5158839414071632E-04   -3.6143060083749915E-05   -6.1976176342346792E-04
           9.6706711087955126E-04   -4.1494673939040553E-04   -1.4270244721758469E-03
           7.4657709736777314E-04    7.4979183339727207E-04   -2.9716006605080277E-05
           1.1944835029782639E-03   -2.4887952170504128E-04   -4.6965328170222144E-04
           3.3415678176953773E-04   -4.4057529883957474E-04   -4.5347033641019379E-04
           1.1012796130050210E-03    2.9083917952597285E-04   -1.2194190254836768E-03
           2.2415342343492216E-04    1.5937251548051045E-03   -3.7781211910776813E-04
           1.0073465758355029E-03   -6.8157982680591375E-04    2.6183752026077441E-04
          -6.9769183535080555E-05    2.4841597088719445E-05   -1.3349984291519639E-04
          -6.5395783739492276E-04   -1.1729839039809436E-04    1.7209949833699894E-04
          -6.3912725033629832E-04   -9.4833908161001570E-04   -2.5753189731582925E-04
          -3.9187509730399182E-04   -2.4417797176966847E-04   -5.0822500047888913E-04
           2.8904185310700607E-04   -2.0455475311660560E-03   -7.4488003308770527E-04
           3.8533435934434658E-04   -1.5649598638721568E-03   -8.1999331591882678E-04
           6.6163782209988965E-04   -2.0530137991704378E-04   -4.7022778538211431E-04
          -4.8571775199106044E-05   -1.4283455067313198E-03    8.4970777265266733E-04
          -5.1040502070943180E-04    9.0124041076034868E-04   -4.3717828654460009E-04
           2.7962496774612284E-04    1.1112791910132262E-04   -5.6980553871092238E-04
          -1.5080494509733386E-03    7.3672779722616590E-04   -5.7541529130785747E-06
           2.4475429621829530E-04    9.7437756643241390E-04   -4.8339679944510482E-04
          -8.5981680087368801E-05    5.9512037269875790E-04   -4.8949501758929146E-05
          -6.8266467563837926E-04   -5.5567223334528884E-04    7.1350489603222423E-04
           4.8033714473236060E-05    6.5011279409722027E-04   -7.7943973950215367E-04
           8.0491911126181974E-05   -7.8343749756016484E-04    7.2435736497449053E-04
           2.5839724569364918E-04    7.5578985206129826E-05   -5.8507007759868673E-04
           3.2468632067482841E-04   -2.7324024726411842E-04    2.5249479693503795E-04
          -1.0539062839342041E-03    5.0616494373586314E-04    7.1049452486332857E-04
           8.0541579377368640E-04   -1.4428395474183324E-04   -9.1111624630604534E-04
          -9.3901405525959676E-05   -1.7440336409783896E-04   -6.6695306718960758E-04
          -5.9667439631195510E-04    2.1020879938514043E-03   -1.6524975841163437E-04
          -5.9413689338785338E-04   -1.8314218672454237E-04   -3.0878549943166113E-04
          -1.1299139621241760E-04   -1.9706794254192893E-04    5.4164798337626933E-04
           3.7379192865323954E-04   -2.2187500988497753E-04   -3.6215118742928602E-04
          -5.2111287107120216E-04    8.9091209793144366E-04   -5.6207250899886155E-04
           6.7919292601925705E-04    1.3343181457101648E-04   -5.4958333089583891E-04
          -5.0955912338807166E-05   -7.8811310901743994E-04    5.3306738434756888E-04
          -8.4615276365063201E-05   -4.3969810880645015E-04   -1.5061331385205832E-03
           1.9621493945779352E-04    7.0658921103846457E-04    7.9834173947490703E-04
          -3.1086266729607979E-04    7.4710976671201292E-04    4.9983161018253596E-04
          -7.7088036735821909E-04    8.7923123995638057E-04    4.4906439901285482E-04
           4.7843808738382183E-04    2.0885304149118077E-04    9.9081078439412730E-04
           2.7383478092574723E-04   -1.2076470149094878E-05    2.0312636572848001E-03
           2.2238602224613273E-04    4.5732113703247782E-04    2.0297495633704783E-03
          -1.3983314820715587E-04    6.4110517559021673E-04    2.3541721874898250E-04
           1.0634351964563418E-03   -8.1406755447970566E-04    2.5592615931953073E-04
           5.5764666822982528E-04   -2.4944020397395272E-04    1.0095491375924986E-03
           8.2355304836746756E-04    4.6265598283245168E-04    1.0873683440579299E-03
           1.0554542732537637E-03    1.4711843503828351E-03   -1.9257994643243867E-04
          -5.9301436638182310E-04    1.4338243179371677E-03   -1.0518598720235068E-03
           1.7009542630312487E-04   -2.7229621441293396E-04   -1.8275874432410830E-04
          -3.9794180046156380E-04    1.1377334676054161E-03    1.5111872074880832E-04
          -2.1010779018392417E-04    2.5908254733961888E-04    1.2965840741271542E-03
           5.7014687397219030E-04    4.3663748723059563E-04   -1.4622705924739320E-04
           2.7451658005715686E-04   -1.1055104187998673E-04   -2.7011911347413415E-04
          -1.5488517943804221E-03   -4.8268639176622338E-04    1.0661735519804155E-03
           1.1223093818405184E-04    6.1336181166206892E-04   -2.4337739021257961E-04
          -8.4642821009571847E-04    2.7314900748059967E-04    4.4966165017331137E-04
          -9.0281864259187988E-04    4.6471968391374643E-04   -2.6632644267693916E-04
          -1.1909602595129381E-03    3.2546725720322429E-05   -5.5177771587372368E-05
           2.6878284878550067E-04   -1.1019214430826999E-03    6.7804196597258729E-04
           3.1926309392104496E-04    1.0177813137840649E-03   -3.0847823993105077E-04
          -4.2284471692144286E-04    4.3959034012412251E-04   -8.2960000477857738E-04
           4.5763012015155786E-04   -7.2873611064879688E-04   -1.9810871957210116E-04
          -2.5435809608514412E-04   -2.9857092394537969E-04    4.0812967129001513E-04
          -1.7369381695684049E-04    6.5701533359049295E-04    1.2674523034651786E-03
           2.5615963330121334E-04   -1.0911306641036149E-06    1.1679000472435241E-03
          -1.6308109767526252E-05    1.3149337650823871E-03    1.0407917757429101E-03
           8.9763869716562848E-04   -3.3652501428131865E-04    5.8254652393126109E-04
           1.0486726919095085E-03    1.4387708622031392E-04   -1.3227328924849883E-03
          -7.1280006662503750E-04    3.7576614692666379E-04   -7.8229807968252366E-04
          -4.9597517506110230E-05    2.0943390446667611E-05   -3.3577883352673614E-04