 # Version information for this restart file 
 # current date 2023-07-27 11:37:44.301
 # current working dir /mnt/lustre/indy2lfs/work/tc047/tc047/mrnuff-cirrus/cp2k/nuff-benchmarks/H2O-64-2node
 # Program compiled at                              Thu Jun 30 12:29:55 BST 2022
 # Program compiled on                                             cirrus-login3
 # Program compiled for                                             Cirrus-intel
 # Source code revision number                                       git:e635599
 &GLOBAL
   PRINT_LEVEL  LOW
   PROJECT_NAME H2O-64
   RUN_TYPE  MD
 &END GLOBAL
 &MOTION
   &MD
     ENSEMBLE  NVE
     STEPS  10
     TIMESTEP     4.9999999999999994E-01
     STEP_START_VAL  10
     TIME_START_VAL     4.9999999999999982E+00
     ECONS_START_VAL    -1.1007588181103617E+03
     TEMPERATURE     3.0000000000000000E+02
     &AVERAGES  T
       &RESTART_AVERAGES
         ITIMES_START  1
         AVECPU     6.1613662878982725E+00
         AVEHUGONIOT     0.0000000000000000E+00
         AVETEMP_BARO     0.0000000000000000E+00
         AVEPOT    -1.1010668160173032E+03
         AVEKIN     3.0070034549354474E-01
         AVETEMP     3.3142598856027121E+02
         AVEKIN_QM     0.0000000000000000E+00
         AVETEMP_QM     0.0000000000000000E+00
         AVEVOL     1.2909542132085598E+04
         AVECELL_A     2.3458682268415796E+01
         AVECELL_B     2.3458682268415796E+01
         AVECELL_C     2.3458682268415796E+01
         AVEALPHA     9.0000000000000000E+01
         AVEBETA     9.0000000000000000E+01
         AVEGAMMA     9.0000000000000000E+01
         AVE_ECONS    -1.0896372327498351E+01
         AVE_PRESS     0.0000000000000000E+00
         AVE_PXX     0.0000000000000000E+00
       &END RESTART_AVERAGES
     &END AVERAGES
   &END MD
 &END MOTION
 &FORCE_EVAL
   METHOD  QS
   &DFT
     BASIS_SET_FILE_NAME GTH_BASIS_SETS
     POTENTIAL_FILE_NAME POTENTIAL
     &SCF
       SCF_GUESS  ATOMIC
       &OT  T
         MINIMIZER  DIIS
       &END OT
       &PRINT
         &RESTART  OFF
         &END RESTART
       &END PRINT
     &END SCF
     &QS
       EPS_DEFAULT     9.9999999999999998E-13
       EXTRAPOLATION  PS
       EXTRAPOLATION_ORDER  3
     &END QS
     &MGRID
       CUTOFF     2.8000000000000000E+02
       REL_CUTOFF     3.0000000000000000E+01
     &END MGRID
     &XC
       DENSITY_CUTOFF     1.0000000000000000E-10
       GRADIENT_CUTOFF     1.0000000000000000E-10
       TAU_CUTOFF     1.0000000000000000E-10
       &XC_FUNCTIONAL  NO_SHORTCUT
         &PADE  T
         &END PADE
       &END XC_FUNCTIONAL
     &END XC
   &END DFT
   &SUBSYS
     &CELL
       A     1.2413800000000002E+01    0.0000000000000000E+00    0.0000000000000000E+00
       B     0.0000000000000000E+00    1.2413800000000002E+01    0.0000000000000000E+00
       C     0.0000000000000000E+00    0.0000000000000000E+00    1.2413800000000002E+01
       MULTIPLE_UNIT_CELL  1 1 1
     &END CELL
     &COORD
O    1.2265692089484167E+01    1.3554390129941918E+00    1.0875425741210551E+01
O    6.4523125712781519E+00    3.7059030017230512E+00    8.6472703373291608E+00
O    7.7679434805507347E-02    2.1684363409618288E+00    8.2608499727948335E+00
O    1.2086328917682170E+01    2.6383236471457403E+00    2.1708319631148338E+00
O    1.2290563434792507E+01    4.1705987030845195E+00    1.2102197401501257E+01
O    7.2035546534507935E+00    9.4146440982923285E-01    4.7596753308530300E+00
O    8.3332259924710641E+00    7.2077559238210362E+00    4.6827252174469161E+00
O    1.2331820354972612E+01    1.1521085584601204E+01    8.0815267568454328E+00
O    3.2742305248728689E+00    4.4591006237001638E+00    9.1745323461747521E+00
O    2.8601657947012935E+00    3.7871321994318681E+00    6.5410904120532587E+00
O    1.3797135980522415E+00    6.3917883108529789E+00    5.6509499049336376E-01
O    1.8717778176466930E+00    8.6859327223322360E+00    2.0908475002934068E+00
O    3.7724126920715890E+00    1.2107291686118607E+01    8.6205990989000068E+00
O    6.4253612010426115E+00    3.6667844669336485E+00    2.7875787966086025E+00
O    1.9996801569167426E+00    1.8525818618606584E+00    4.8671305057775403E+00
O    8.2870264289442677E+00    2.4221945186201173E+00    6.9417301194041023E+00
O    5.7524965525742475E+00    3.3354063225406536E+00    1.2486444073906721E+01
O    1.1313041873264293E+01    5.6568394091371648E+00    2.2481538681309594E+00
O    4.2889086332746427E+00    2.1146774663677621E+00    1.0586400462686990E+01
O    5.3988008779579433E+00    3.3584215761666592E+00    5.4859980676065261E+00
O    6.5093803283314831E+00    1.1870555907452285E+01    7.1448610258286926E-01
O    3.2525927590518191E+00    2.3434818290720547E+00    2.4132514479860481E+00
O    8.0086796499284532E+00    6.3565335203089086E+00    7.4977752039608845E+00
O    5.9288585788256079E+00    6.5082801666042016E+00    1.2195796701642651E+01
O    1.0610385294795845E+01    1.1861264429738400E+01    1.2200574174939961E+01
O    9.3403690756569020E+00    3.6890996107164638E+00    3.5273423653474647E+00
O    1.1111278086578995E+00    5.7890355206452240E+00    6.6473009501981108E+00
O    8.0194995343335069E+00    3.3269739508473091E+00    1.0869758841489855E+01
O    1.2376084676796369E+01    9.6748049821030246E+00    1.1772442429127741E+01
O    4.2098962719503916E+00    7.0914037241391039E+00    8.1403049780540861E+00
O    3.7839656891274087E+00    8.2290488153630417E+00    1.1585038748792870E+01
O    1.1076296436002897E+01    4.5429033328725312E+00    7.8327522122957642E+00
O    1.0435269965490480E+01    8.4217711221834595E+00    1.0328413587522780E+00
O    1.9828015281274360E+00    6.4005825276166304E+00    1.0353823655978632E+01
O    4.7041682767468238E+00    5.6227133611203262E-01    5.6097237226910703E+00
O    8.7178718108893865E+00    1.2242115811187359E+01    8.0976567639232737E+00
O    2.6327341025094904E+00    1.0520521873272553E+01    8.2905623926724667E-02
O    7.2399931187466953E+00    1.0511642196931639E+01    4.2432664330029377E+00
O    2.2807064781618394E+00    2.7612056427321402E-01    1.0807250569989112E+01
O    8.8632061138830167E+00    9.4642072500216345E-01    1.3400856795973617E+00
O    1.9443088048743484E+00    8.0893935868695532E+00    7.5355059867710716E+00
O    9.6598248299587652E+00    8.0355046451627121E+00    9.8565400345212524E+00
O    1.0903669851584421E+01    8.3307153998977554E+00    6.4773146916025945E+00
O    3.5124567442237509E+00    4.8693650210821708E+00    1.5451764009707916E+00
O    7.9775830453592116E+00    8.6026723333303536E+00    1.2050849513770716E+01
O    8.3694035479504478E+00    1.0019371052442844E+01    6.6836141760226733E+00
O    5.6546743218580167E+00    6.0810664230946285E+00    5.5283846573828068E+00
O    1.1742547847645357E+01    1.6241840639034042E+00    5.0859575162073867E+00
O    9.7585719615142796E+00    9.8110347715521247E+00    3.5364867774940723E+00
O    3.9627876574399576E+00    1.0548914651573945E+01    4.6848634346389240E+00
O    9.0110847254980708E-01    6.3699180308685204E+00    4.0614677068442040E+00
O    6.8825857356121887E+00    6.4084220847945428E+00    2.5046902581441910E+00
O    3.8180799995398758E+00    6.6391276583281300E+00    3.7786506828596877E+00
O    6.5639457974901045E+00    8.3081696931558060E+00    8.8142644496197171E+00
O    9.7792965800926286E+00    1.3440562766328112E-01    3.8518038249084663E+00
O    4.1040770115655762E+00    1.1645978558721389E+01    2.2167390496174240E+00
O    5.3225394392113676E+00    8.7370879819811602E+00    2.7520568939068801E+00
O    1.0008064086737280E+01    5.3735087324374247E+00    5.3757728940150260E+00
O    1.2260297782908752E+01    8.6464340629360024E+00    3.9709777917869862E+00
O    2.3431345497117144E+00    1.0747243885368603E+01    6.8128217267253923E+00
O    7.0016612916654095E+00    6.6240597665992462E-01    1.0534341561687942E+01
O    5.1725047982212393E+00    1.0218495319125196E+01    1.0357205957141172E+01
O    1.1186316801594266E+01    5.8851524495734457E+00    1.0299193203865984E+01
O    1.2277001782589702E+01    8.9569716794262444E+00    9.0707884188587027E+00
H    1.2357840653883951E+01    2.3335995753230683E+00    1.1187202568865795E+01
H    1.1946181003855363E+01    1.5338243304132306E+00    9.8820686313883783E+00
H    5.5871540557013804E+00    3.4492983737409220E+00    9.0442905792565664E+00
H    6.8930493554866485E+00    3.0239782285784664E+00    7.9852283560208832E+00
H   -1.4374297117025706E-01    1.5098214846051023E+00    7.5263531243344088E+00
H   -3.8865416711603640E-01    3.0530974755009357E+00    7.9298823362661217E+00
H    1.2176354233155498E+01    2.9746344065059125E+00    1.1924463434415256E+00
H    1.2991627169714928E+01    2.9143170210553002E+00    2.5155346727351393E+00
H    1.1517585159654523E+01    4.3255122446511232E+00    1.1434691026735074E+01
H    1.2784953658522502E+01    5.0635466714141177E+00    1.2040055000812719E+01
H    6.9671401310542631E+00    1.7387343976994463E+00    4.1849967664926879E+00
H    6.2296009063339630E+00    6.8946782722606648E-01    5.1579113656941376E+00
H    7.7273594948729460E+00    7.2216808380972726E+00    5.4888761780284421E+00
H    9.1691701765445899E+00    6.6296086344960390E+00    4.9460727574871868E+00
H    1.2846883768257324E+01    1.1781070688351425E+01    8.9005192602379992E+00
H    1.1983330930255839E+01    1.0563456761595589E+01    8.3168613221540895E+00
H    3.5249173108191405E+00    3.8402074967255335E+00    9.9510006399906654E+00
H    2.4297337650179771E+00    4.9330989925202502E+00    9.5245628999122562E+00
H    2.1731627523289179E+00    4.5583640086437107E+00    6.3013579985294141E+00
H    2.8563500932215393E+00    3.8576048156124312E+00    7.5841394106042923E+00
H    1.1402120515024674E+00    7.1967347480541308E+00    1.1594244541626670E+00
H    2.2451038169243507E+00    6.0044688738678405E+00    1.0028737587420959E+00
H    2.8159635337997115E+00    8.9701748198765578E+00    2.2995199891602893E+00
H    1.3289544665074691E+00    8.9939926467755562E+00    2.8983257079453493E+00
H    4.4550218369063739E+00    1.1540339425003971E+01    9.1644203320319377E+00
H    3.0505860859911236E+00    1.2474023132570023E+01    9.2862357274717322E+00
H    5.8591510063948826E+00    3.4580809397757490E+00    3.6616773633304551E+00
H    5.8328342793248833E+00    3.4003555439697601E+00    1.9823495664215203E+00
H    9.5573469725980531E-01    1.6451477306439775E+00    4.8407733836327678E+00
H    2.2282991647312764E+00    2.4813299829870012E+00    5.6872650230027642E+00
H    8.4431290012367928E+00    1.6050270153555970E+00    7.5442513472478119E+00
H    8.0660702671742506E+00    2.0137128293841644E+00    6.0338191030226245E+00
H    5.2179579256217812E+00    2.8944435585814179E+00    1.1676379626019584E+01
H    6.6808372388707014E+00    3.4137338960716210E+00    1.1974227321955004E+01
H    1.0787628803144887E+01    6.5181395670619970E+00    2.0987991922623488E+00
H    1.1679773573100489E+01    5.3602522151470851E+00    1.3423877172506342E+00
H    3.4353203684185414E+00    1.5422281194349046E+00    1.0899348788953349E+01
H    4.8360131199378733E+00    1.4266306188297482E+00    1.0089887937303224E+01
H    4.3860802582006766E+00    3.3639520802571852E+00    5.6883523933795095E+00
H    5.6851424648153763E+00    4.3694414775810699E+00    5.5473743673643519E+00
H    6.2905172776221745E+00    1.1824099733751678E+01    1.7188529435633322E+00
H    5.6254822935027793E+00    1.2118652077616785E+01    3.2827489265255799E-01
H    3.5448338646067201E+00    1.3905272139796798E+00    2.1815170599094458E+00
H    2.6082617908445442E+00    2.2011793682002780E+00    3.2448585926828746E+00
H    7.1214310944135066E+00    5.8746986475783638E+00    7.5240902705287747E+00
H    8.6555160452204145E+00    5.7349833608729384E+00    7.0296645633649764E+00
H    6.0004465275674947E+00    5.6511979030148796E+00    1.1673025686979249E+01
H    6.2576534574151417E+00    6.3249880564329741E+00    1.3168261180251744E+01
H    1.1110393485507103E+01    1.2636559250997715E+01    1.1695509562618872E+01
H    1.0264574453193438E+01    1.2297166054266892E+01    1.3044673119309952E+01
H    9.9063257583756990E+00    4.0523254539290434E+00    2.7328096710809202E+00
H    8.5320976562309649E+00    3.4662435851507030E+00    2.9418258347992996E+00
H    1.4549325922343093E+00    6.6684406032659451E+00    7.1063381287432170E+00
H    1.0013233336702410E+00    6.1758231958594436E+00    5.6553319488929068E+00
H    7.9834584102617558E+00    3.6965662970350541E+00    9.9295362401114069E+00
H    8.0702893407915202E+00    2.3148727995366456E+00    1.0750118168091030E+01
H    1.1741851247337195E+01    1.0457041172522473E+01    1.2099135806993532E+01
H    1.2145140467196672E+01    8.9346530857755209E+00    1.2412210742861550E+01
H    3.3373535314761513E+00    7.6121200308659205E+00    7.8531045761946778E+00
H    3.8438071109325405E+00    6.2417161568844302E+00    8.6114175129829604E+00
H    3.1132077807656837E+00    7.6196920981173282E+00    1.1070308623798432E+01
H    4.4752997918982578E+00    7.6309327249727144E+00    1.2076616644958394E+01
H    1.1595109347939717E+01    4.9846383472190503E+00    7.0588447442725855E+00
H    1.0300198428128203E+01    4.1359917521749843E+00    7.3179795841163848E+00
H    1.0066803629045049E+01    8.9449101926891039E+00    1.8648409458423241E+00
H    9.5721275817993217E+00    8.2654871620117341E+00    4.9820470823234292E-01
H    1.3188214514377610E+00    6.6901027276282381E+00    9.6503048603178030E+00
H    1.4021624816950973E+00    6.4512365186853682E+00    1.1227722789146934E+01
H    4.1225373888744397E+00    1.3301382656583036E+00    5.2661059713504388E+00
H    4.6863100279909267E+00    6.4323888153832975E-01    6.6181558656211967E+00
H    9.4703533710561096E+00    1.2334177792060363E+01    8.7409520154273253E+00
H    8.8486737260994026E+00    1.1353175343936906E+01    7.5414016813708589E+00
H    1.7346635260608738E+00    1.0023247752458015E+01    1.4531246290742195E-01
H    3.3374323737187810E+00    9.8445600332821019E+00   -2.3573946363356835E-01
H    7.0505799823404391E+00    1.1506005604268145E+01    4.1255571139616993E+00
H    6.4716019298289416E+00    9.9354966266944889E+00    3.7910911532799529E+00
H    1.3268589592367803E+00    5.8377393430337132E-01    1.1128929736798575E+01
H    2.5223619020798558E+00   -5.4513600115361505E-01    1.1460522258351659E+01
H    8.7695024945571642E+00    1.8730405160134818E+00    9.9029984538943128E-01
H    8.0908940305274299E+00    3.3984351975203791E-01    9.9164117999833712E-01
H    1.1203607709234320E+00    8.3716512006957942E+00    8.1792323344821369E+00
H    2.0883187077776779E+00    8.9941496096242837E+00    7.0138877035405187E+00
H    8.9092455661185230E+00    7.7938840102035671E+00    9.2222118549462593E+00
H    9.0650442925875119E+00    8.4492400512124792E+00    1.0614283870981687E+01
H    1.0125293357177299E+01    7.6972294325243116E+00    6.4507709233873891E+00
H    1.0499855152534950E+01    9.1992705817142753E+00    6.1555311709856131E+00
H    3.4971231604232456E+00    3.9586904012080919E+00    2.1122844778207943E+00
H    4.0584146620661965E+00    4.5845739999394546E+00    7.4299547661107013E-01
H    7.3547300979716264E+00    9.3907717765822643E+00    1.2034662471092767E+01
H    7.3341917810681920E+00    7.7711469163732794E+00    1.2054219542748699E+01
H    7.8271815569082621E+00    1.0161811172290436E+01    5.7814619639483276E+00
H    7.7120113817878728E+00    9.5092512996368956E+00    7.2843726304678533E+00
H    5.2899463871861503E+00    6.4889429596066712E+00    6.3929757321023910E+00
H    4.8678252868826632E+00    6.3175211180847404E+00    4.8313586361448317E+00
H    1.1521862541305993E+01    2.1923283626800867E+00    4.2496614328174322E+00
H    1.1222791846957895E+01    7.8414795598399811E-01    4.7829538343864879E+00
H    8.8119942350202045E+00    9.6778779613706263E+00    3.9666686831522755E+00
H    9.9342844970886812E+00    1.0814156988789774E+01    3.7816372858612808E+00
H    3.1082289528956912E+00    1.0546326407174432E+01    5.2868803913855578E+00
H    4.3132584907107274E+00    1.1455620653057670E+01    5.0610780320736390E+00
H    4.2220406784275638E-01    7.3045102192441504E+00    3.8013135649930954E+00
H    2.9772343931232814E-01    5.7724401932035825E+00    3.4526995513609173E+00
H    7.5860591209738510E+00    6.5678847601540342E+00    3.2915836809337136E+00
H    6.6758385347276903E+00    5.3831754309181132E+00    2.5200133494027677E+00
H    3.8532534172196971E+00    6.3060046348700878E+00    2.8123783749704439E+00
H    2.7953246440736290E+00    6.5485847389773477E+00    3.9537741358611229E+00
H    5.5553176437610432E+00    8.0120599991639470E+00    8.6583941104700237E+00
H    6.9993930795490664E+00    7.4780238970674917E+00    8.4104344163933629E+00
H    9.5571588990613456E+00    7.3280446145736300E-01    3.0174818797266858E+00
H    8.9237164310789581E+00    1.3437510586328880E-01    4.4076447871973716E+00
H    3.8482457315701675E+00    1.1174438455170259E+01    1.3441470566655369E+00
H    3.9626056228599915E+00    1.0964278466896866E+01    3.0102551897944601E+00
H    5.9449661422362929E+00    7.8891857853082845E+00    2.7995741535963528E+00
H    4.7652120121284183E+00    8.7229381074889218E+00    3.5906717261643197E+00
H    1.0905815782849071E+01    5.5302201800696764E+00    4.9342869455825120E+00
H    9.5033245323301720E+00    4.6732708376734058E+00    4.7171193166488763E+00
H    1.1491942104116273E+01    9.0018887406801689E+00    3.3983649908382501E+00
H    1.1959903629042421E+01    8.7851547644283965E+00    4.9401026898668485E+00
H    2.9404439844275738E+00    1.1333326721639214E+01    7.4881123877728593E+00
H    1.3993518978819888E+00    1.1120275827043031E+01    6.8063456551225148E+00
H    7.2181951384366725E+00    1.2809608485385640E-01    9.7032371258677195E+00
H    7.1648660378580908E+00    1.0772078745190582E-01    1.1367500988400270E+01
H    4.8113412051063413E+00    9.3237474535600615E+00    1.0837702423611612E+01
H    6.0816481698034055E+00    9.8060697913089907E+00    1.0186927365163593E+01
H    1.0565212262639905E+01    6.7306908548571274E+00    1.0314443980526979E+01
H    1.1239043366237675E+01    5.5938377372091335E+00    9.3143651163975409E+00
H    1.2188456954751087E+01    8.9927460848960408E+00    1.0127821223536245E+01
H    1.1415764242460222E+01    8.6329965780992630E+00    8.6365688433562795E+00
     &END COORD
     &VELOCITY
           2.4353373553376634E-04   -1.2006097602553406E-04    8.6380096428636109E-05
           5.1311970178035576E-05   -1.2708266193258708E-06   -1.4048482610126372E-05
          -1.3298767757335115E-04   -8.3910828183872340E-05   -1.7227772179712598E-04
           3.2311111387244463E-04   -2.8974228281129571E-04    2.2815855771182882E-04
           3.6807112799616383E-04   -1.6540691871628959E-04    8.2168021721657842E-05
           8.6843810078958498E-05   -1.6733145785229495E-04    2.3233906169899305E-04
          -1.9144732815439485E-04    3.6490306373133465E-05    1.7692428816907114E-04
          -2.7339212137466175E-04   -2.0181330319688552E-06   -2.5185283188669012E-04
          -2.9114797156592288E-04    1.4202524656998299E-04   -9.4207613532956943E-05
           4.9604684383421687E-05    1.9764986075623624E-04   -3.9675655900816199E-05
          -1.0338266296060260E-04    2.5533554886979020E-04   -1.7753567723201552E-04
           1.2393271803091621E-04   -5.1522817959506645E-05    2.4869105054771694E-04
           3.7171385611407762E-05    1.3912087635299203E-04   -2.6001104941510687E-04
          -9.0584380440241917E-05   -5.4256969622858205E-05    1.3571849163706410E-04
          -1.3532069033428622E-05    2.9312535024582489E-04   -1.1035216194656817E-04
           3.4365663856452360E-04    1.2592891247363179E-04    1.2984947778370406E-04
           3.1061310687701328E-05   -2.1491061234640637E-04    1.3642911352082144E-04
          -1.1197980598541423E-04    8.8708519144758030E-05    8.1551359030746613E-05
           7.2553977152720780E-05   -7.4882564046681045E-05   -3.7593240426803131E-05
          -3.9311008769084244E-05    7.7794970775925786E-05   -4.9503853885504896E-05
           1.3050850736010086E-04    3.2997372837024169E-05    2.3384938882132161E-04
          -2.3506710107405691E-04   -1.3038351983320193E-04   -7.8872779759521275E-05
           2.2656471395755460E-04    3.8984618370529815E-06   -1.0674489559957224E-04
          -4.8910812396693885E-04   -8.8250996373884200E-05    4.1168871695139149E-05
          -2.3516505104112070E-04    3.0141522873294214E-05   -4.3307021530230537E-05
           2.3874077440241116E-04    1.6479626533137442E-04   -6.5961174430236247E-06
           2.1570400442552109E-06   -3.6687604473998226E-04    1.9056449024363070E-05
           1.5263290745956649E-04   -4.5423683353527839E-05   -4.7828240980342835E-05
          -2.4361660474115285E-04   -1.5799538490245750E-04    1.4701044899834861E-04
          -4.6332302280304950E-05    6.6958418739050194E-05   -1.4093723621016392E-04
           7.0402526346764264E-05    1.4787938508571588E-04    2.3294646136760147E-04
          -1.0541845847097241E-04    9.0959878373038537E-05    1.4239486316804779E-04
           3.9447066267653426E-04    6.7697585283011563E-05    1.1078543439862302E-04
          -7.7642050405459320E-05   -1.2536442817887900E-04   -1.9896428319818998E-04
           4.0834731830624555E-04    1.4767279245020011E-04    2.0697580190278425E-05
          -2.3059415805144306E-04   -1.2069261926211383E-04    1.1528847271717878E-04
          -2.2453224222980549E-04    3.2508315209495300E-04   -1.1011175869249312E-04
          -2.5223464560832730E-05    3.9102949516742235E-04    1.6353834116155779E-04
           2.2717843313917236E-05   -6.2765751651370921E-06    4.4671040024334724E-05
          -2.2749659830858661E-04   -6.9576305489069380E-06    6.3788388338063346E-05
          -7.5841302720298516E-05    8.7087799014032416E-05   -2.6939094015540957E-04
          -1.5166914071647656E-04   -1.6482446184594849E-04   -8.8619423399820182E-05
           8.3255811672605841E-06   -5.3065384628782912E-05   -7.5044278378558617E-05
           6.6403553282940088E-05    1.1865592146449806E-04   -1.6876922794123504E-04
          -3.6854176965790247E-04   -4.4916679521675689E-04   -7.2212204722036164E-05
          -1.2514834926116643E-04   -2.1658705550807320E-04    1.4279407553367487E-05
           1.5301292386859217E-04    7.8212466737062643E-05   -2.6042789655569116E-04
           1.1597437780901644E-04    1.3153166326482660E-04    1.9714489346795823E-05
          -2.7586288468577147E-05    4.9135802993381284E-05   -8.2847135187203461E-05
           1.7533037836806728E-04   -1.0200057778782645E-04   -1.5955910870072828E-05
           9.1305293491155181E-06   -1.7063363096368167E-04   -1.2704533408598265E-04
           2.0532414019964817E-04   -1.8523108331223241E-04    1.5576953260139267E-04
          -9.5082342048943391E-05    3.8898283928678879E-04    6.8143354601439671E-05
          -3.3468517682977973E-05    1.1413973593997485E-04    4.8372670605978094E-05
          -3.2167308794254585E-04   -6.7373694362951841E-05   -3.3440505798318842E-04
          -1.0565699375647043E-04   -1.8612919959438528E-04   -4.1185047195565035E-05
           3.0227443464041909E-04   -1.9476823675150351E-08   -4.0898192669516904E-05
           3.4132859751122242E-04   -7.5666618756894710E-05    3.1369871723645800E-04
           4.8774504486318037E-06    9.5432986767289763E-05    4.0463993791763585E-05
          -7.3525642131230267E-05   -1.1023344657284758E-04   -1.6990266178320998E-04
          -9.5305467321869458E-05    1.5924492797659182E-04    1.0050784054972216E-04
           2.9577992716536974E-04   -2.0302338272597568E-04   -3.8000268564148480E-06
           3.3426751497008687E-05    2.9960856877021914E-05    2.2957098673281914E-05
           2.1247046209622850E-04   -1.8773508816476270E-04   -7.1323934922067127E-05
          -4.5158839414134060E-04   -3.6143060083966674E-05   -6.1976176342269694E-04
           9.6706711088244207E-04   -4.1494673938962507E-04   -1.4270244721770703E-03
           7.4657709737478565E-04    7.4979183339809314E-04   -2.9716006606937570E-05
           1.1944835029803931E-03   -2.4887952170211047E-04   -4.6965328169747958E-04
           3.3415678176827756E-04   -4.4057529884322449E-04   -4.5347033641286673E-04
           1.1012796130076188E-03    2.9083917952771885E-04   -1.2194190254869184E-03
           2.2415342343531372E-04    1.5937251548088253E-03   -3.7781211910816424E-04
           1.0073465758376485E-03   -6.8157982680388401E-04    2.6183752026288763E-04
          -6.9769183542048275E-05    2.4841597088126793E-05   -1.3349984291998823E-04
          -6.5395783738846818E-04   -1.1729839038458244E-04    1.7209949833939942E-04
          -6.3912725033655007E-04   -9.4833908160966854E-04   -2.5753189731850837E-04
          -3.9187509730210916E-04   -2.4417797176878517E-04   -5.0822500048033361E-04
           2.8904185310496989E-04   -2.0455475311647246E-03   -7.4488003307980274E-04
           3.8533435934325999E-04   -1.5649598638721003E-03   -8.1999331592044506E-04
           6.6163782210110873E-04   -2.0530137991623599E-04   -4.7022778537537501E-04
          -4.8571775201413701E-05   -1.4283455067358721E-03    8.4970777265270538E-04
          -5.1040502071433521E-04    9.0124041076595021E-04   -4.3717828655463959E-04
           2.7962496774784401E-04    1.1112791910058711E-04   -5.6980553870892257E-04
          -1.5080494509733938E-03    7.3672779722399738E-04   -5.7541529121800421E-06
           2.4475429621511669E-04    9.7437756643084679E-04   -4.8339679943756604E-04
          -8.5981680087231989E-05    5.9512037269693764E-04   -4.8949501760208315E-05
          -6.8266467564217332E-04   -5.5567223334371198E-04    7.1350489603206138E-04
           4.8033714471050444E-05    6.5011279409833830E-04   -7.7943973950284724E-04
           8.0491911128532890E-05   -7.8343749755815754E-04    7.2435736497001289E-04
           2.5839724569432290E-04    7.5578985205180323E-05   -5.8507007759763441E-04
           3.2468632067356217E-04   -2.7324024726316633E-04    2.5249479693700074E-04
          -1.0539062839314975E-03    5.0616494373733310E-04    7.1049452486006447E-04
           8.0541579377179295E-04   -1.4428395474200942E-04   -9.1111624630563930E-04
          -9.3901405522392976E-05   -1.7440336409567297E-04   -6.6695306718898492E-04
          -5.9667439631307453E-04    2.1020879938488824E-03   -1.6524975841752726E-04
          -5.9413689338765258E-04   -1.8314218672751709E-04   -3.0878549942719812E-04
          -1.1299139621391597E-04   -1.9706794254471796E-04    5.4164798337069805E-04
           3.7379192865906843E-04   -2.2187500988242172E-04   -3.6215118742191182E-04
          -5.2111287107198799E-04    8.9091209793042223E-04   -5.6207250899996657E-04
           6.7919292602407514E-04    1.3343181456804202E-04   -5.4958333089554054E-04
          -5.0955912341922871E-05   -7.8811310901489250E-04    5.3306738435473556E-04
          -8.4615276365316715E-05   -4.3969810880620708E-04   -1.5061331385238742E-03
           1.9621493945754767E-04    7.0658921103957685E-04    7.9834173947403186E-04
          -3.1086266729299567E-04    7.4710976671260088E-04    4.9983161017867154E-04
          -7.7088036735311054E-04    8.7923123996859834E-04    4.4906439901559281E-04
           4.7843808738223082E-04    2.0885304149194356E-04    9.9081078439491269E-04
           2.7383478092634587E-04   -1.2076470152311181E-05    2.0312636572864915E-03
           2.2238602224279011E-04    4.5732113703709153E-04    2.0297495633728306E-03
          -1.3983314820214314E-04    6.4110517559175478E-04    2.3541721874396091E-04
           1.0634351964475257E-03   -8.1406755448279586E-04    2.5592615931788892E-04
           5.5764666823704878E-04   -2.4944020397486279E-04    1.0095491375877498E-03
           8.2355304836605680E-04    4.6265598283221987E-04    1.0873683440563748E-03
           1.0554542732558432E-03    1.4711843503807964E-03   -1.9257994643005909E-04
          -5.9301436638135960E-04    1.4338243179409836E-03   -1.0518598720293179E-03
           1.7009542630542528E-04   -2.7229621441235663E-04   -1.8275874432752153E-04
          -3.9794180045780433E-04    1.1377334676052294E-03    1.5111872074476701E-04
          -2.1010779018600147E-04    2.5908254733639701E-04    1.2965840741235698E-03
           5.7014687397160830E-04    4.3663748722912296E-04   -1.4622705925003865E-04
           2.7451658005708308E-04   -1.1055104188075741E-04   -2.7011911347206972E-04
          -1.5488517943851848E-03   -4.8268639176634849E-04    1.0661735519786539E-03
           1.1223093818491271E-04    6.1336181166263401E-04   -2.4337739021261721E-04
          -8.4642821009579090E-04    2.7314900747756591E-04    4.4966165017180275E-04
          -9.0281864259572522E-04    4.6471968391105240E-04   -2.6632644267695856E-04
          -1.1909602595108716E-03    3.2546725716654708E-05   -5.5177771583921542E-05
           2.6878284878388694E-04   -1.1019214430845658E-03    6.7804196597312212E-04
           3.1926309391541350E-04    1.0177813137775805E-03   -3.0847823993550495E-04
          -4.2284471691627495E-04    4.3959034011985536E-04   -8.2960000477391488E-04
           4.5763012015414357E-04   -7.2873611064714456E-04   -1.9810871957434969E-04
          -2.5435809608839044E-04   -2.9857092394790734E-04    4.0812967128790273E-04
          -1.7369381695524249E-04    6.5701533358444462E-04    1.2674523034630397E-03
           2.5615963331200651E-04   -1.0911306608061901E-06    1.1679000472523844E-03
          -1.6308109777157911E-05    1.3149337650855137E-03    1.0407917757292980E-03
           8.9763869715667904E-04   -3.3652501427786118E-04    5.8254652394077139E-04
           1.0486726919118495E-03    1.4387708622091107E-04   -1.3227328924853663E-03
          -7.1280006662234531E-04    3.7576614692734213E-04   -7.8229807968054912E-04
          -4.9597517504157331E-05    2.0943390447440776E-05   -3.3577883352638583E-04