 # Version information for this restart file 
 # current date 2023-07-27 11:38:59.635
 # current working dir /mnt/lustre/indy2lfs/work/tc047/tc047/mrnuff-cirrus/cp2k/nuff-benchmarks/H2O-64-2node
 # Program compiled at                              Thu Jun 30 12:29:55 BST 2022
 # Program compiled on                                             cirrus-login3
 # Program compiled for                                             Cirrus-intel
 # Source code revision number                                       git:e635599
 &GLOBAL
   PRINT_LEVEL  LOW
   PROJECT_NAME H2O-64
   RUN_TYPE  MD
 &END GLOBAL
 &MOTION
   &MD
     ENSEMBLE  NVE
     STEPS  10
     TIMESTEP     4.9999999999999994E-01
     STEP_START_VAL  10
     TIME_START_VAL     4.9999999999999982E+00
     ECONS_START_VAL    -1.1007588181105530E+03
     TEMPERATURE     3.0000000000000000E+02
     &AVERAGES  T
       &RESTART_AVERAGES
         ITIMES_START  1
         AVECPU     6.2141533991554754E+00
         AVEHUGONIOT     0.0000000000000000E+00
         AVETEMP_BARO     0.0000000000000000E+00
         AVEPOT    -1.1010668160173036E+03
         AVEKIN     3.0070034549325309E-01
         AVETEMP     3.3142598855994976E+02
         AVEKIN_QM     0.0000000000000000E+00
         AVETEMP_QM     0.0000000000000000E+00
         AVEVOL     1.2909542132085598E+04
         AVECELL_A     2.3458682268415796E+01
         AVECELL_B     2.3458682268415796E+01
         AVECELL_C     2.3458682268415796E+01
         AVEALPHA     9.0000000000000000E+01
         AVEBETA     9.0000000000000000E+01
         AVEGAMMA     9.0000000000000000E+01
         AVE_ECONS    -1.0896372044865201E+01
         AVE_PRESS     0.0000000000000000E+00
         AVE_PXX     0.0000000000000000E+00
       &END RESTART_AVERAGES
     &END AVERAGES
   &END MD
 &END MOTION
 &FORCE_EVAL
   METHOD  QS
   &DFT
     BASIS_SET_FILE_NAME GTH_BASIS_SETS
     POTENTIAL_FILE_NAME POTENTIAL
     &SCF
       SCF_GUESS  ATOMIC
       &OT  T
         MINIMIZER  DIIS
       &END OT
       &PRINT
         &RESTART  OFF
         &END RESTART
       &END PRINT
     &END SCF
     &QS
       EPS_DEFAULT     9.9999999999999998E-13
       EXTRAPOLATION  PS
       EXTRAPOLATION_ORDER  3
     &END QS
     &MGRID
       CUTOFF     2.8000000000000000E+02
       REL_CUTOFF     3.0000000000000000E+01
     &END MGRID
     &XC
       DENSITY_CUTOFF     1.0000000000000000E-10
       GRADIENT_CUTOFF     1.0000000000000000E-10
       TAU_CUTOFF     1.0000000000000000E-10
       &XC_FUNCTIONAL  NO_SHORTCUT
         &PADE  T
         &END PADE
       &END XC_FUNCTIONAL
     &END XC
   &END DFT
   &SUBSYS
     &CELL
       A     1.2413800000000002E+01    0.0000000000000000E+00    0.0000000000000000E+00
       B     0.0000000000000000E+00    1.2413800000000002E+01    0.0000000000000000E+00
       C     0.0000000000000000E+00    0.0000000000000000E+00    1.2413800000000002E+01
       MULTIPLE_UNIT_CELL  1 1 1
     &END CELL
     &COORD
O    1.2265692089483858E+01    1.3554390129941742E+00    1.0875425741210410E+01
O    6.4523125712782008E+00    3.7059030017228674E+00    8.6472703373292976E+00
O    7.7679434805442080E-02    2.1684363409615957E+00    8.2608499727948619E+00
O    1.2086328917682366E+01    2.6383236471456031E+00    2.1708319631148276E+00
O    1.2290563434792498E+01    4.1705987030843987E+00    1.2102197401500637E+01
O    7.2035546534508264E+00    9.4146440982939417E-01    4.7596753308530655E+00
O    8.3332259924709913E+00    7.2077559238208648E+00    4.6827252174467908E+00
O    1.2331820354972876E+01    1.1521085584601169E+01    8.0815267568454683E+00
O    3.2742305248729138E+00    4.4591006237003601E+00    9.1745323461747539E+00
O    2.8601657947011234E+00    3.7871321994318321E+00    6.5410904120533662E+00
O    1.3797135980521669E+00    6.3917883108528262E+00    5.6509499049343315E-01
O    1.8717778176468458E+00    8.6859327223317688E+00    2.0908475002935369E+00
O    3.7724126920715815E+00    1.2107291686118629E+01    8.6205990989001560E+00
O    6.4253612010425698E+00    3.6667844669334761E+00    2.7875787966085901E+00
O    1.9996801569167746E+00    1.8525818618605483E+00    4.8671305057775944E+00
O    8.2870264289442606E+00    2.4221945186201994E+00    6.9417301194040837E+00
O    5.7524965525743772E+00    3.3354063225407260E+00    1.2486444073906791E+01
O    1.1313041873263911E+01    5.6568394091370520E+00    2.2481538681310069E+00
O    4.2889086332743807E+00    2.1146774663677692E+00    1.0586400462686621E+01
O    5.3988008779579113E+00    3.3584215761666769E+00    5.4859980676066327E+00
O    6.5093803283316864E+00    1.1870555907452744E+01    7.1448610258286416E-01
O    3.2525927590516752E+00    2.3434818290721120E+00    2.4132514479858811E+00
O    8.0086796499283803E+00    6.3565335203086892E+00    7.4977752039613454E+00
O    5.9288585788258112E+00    6.5082801666042958E+00    1.2195796701642466E+01
O    1.0610385294795512E+01    1.1861264429738570E+01    1.2200574174939968E+01
O    9.3403690756568789E+00    3.6890996107163998E+00    3.5273423653475064E+00
O    1.1111278086578058E+00    5.7890355206451432E+00    6.6473009501981490E+00
O    8.0194995343336863E+00    3.3269739508473846E+00    1.0869758841489816E+01
O    1.2376084676796195E+01    9.6748049821027209E+00    1.1772442429127418E+01
O    4.2098962719503774E+00    7.0914037241392256E+00    8.1403049780539405E+00
O    3.7839656891276747E+00    8.2290488153629884E+00    1.1585038748792485E+01
O    1.1076296436002702E+01    4.5429033328726609E+00    7.8327522122957163E+00
O    1.0435269965490626E+01    8.4217711221836549E+00    1.0328413587523053E+00
O    1.9828015281271429E+00    6.4005825276163524E+00    1.0353823655978479E+01
O    4.7041682767468780E+00    5.6227133611202207E-01    5.6097237226911894E+00
O    8.7178718108893989E+00    1.2242115811187224E+01    8.0976567639231547E+00
O    2.6327341025095889E+00    1.0520521873272948E+01    8.2905623926734687E-02
O    7.2399931187464972E+00    1.0511642196931724E+01    4.2432664330031846E+00
O    2.2807064781620143E+00    2.7612056427346998E-01    1.0807250569989327E+01
O    8.8632061138830398E+00    9.4642072500207852E-01    1.3400856795969982E+00
O    1.9443088048743629E+00    8.0893935868695444E+00    7.5355059867712253E+00
O    9.6598248299589002E+00    8.0355046451626393E+00    9.8565400345209522E+00
O    1.0903669851584290E+01    8.3307153998975974E+00    6.4773146916028335E+00
O    3.5124567442237802E+00    4.8693650210822783E+00    1.5451764009707853E+00
O    7.9775830453592969E+00    8.6026723333305100E+00    1.2050849513770212E+01
O    8.3694035479504603E+00    1.0019371052442997E+01    6.6836141760228767E+00
O    5.6546743218576001E+00    6.0810664230944820E+00    5.5283846573827464E+00
O    1.1742547847645337E+01    1.6241840639033966E+00    5.0859575162072961E+00
O    9.7585719615142512E+00    9.8110347715518209E+00    3.5364867774941411E+00
O    3.9627876574400225E+00    1.0548914651573712E+01    4.6848634346389595E+00
O    9.0110847254968129E-01    6.3699180308687318E+00    4.0614677068441738E+00
O    6.8825857356122242E+00    6.4084220847944282E+00    2.5046902581440720E+00
O    3.8180799995398820E+00    6.6391276583280012E+00    3.7786506828598103E+00
O    6.5639457974899660E+00    8.3081696931558255E+00    8.8142644496195608E+00
O    9.7792965800925948E+00    1.3440562766332007E-01    3.8518038249084663E+00
O    4.1040770115658338E+00    1.1645978558721310E+01    2.2167390496173134E+00
O    5.3225394392113099E+00    8.7370879819810519E+00    2.7520568939068486E+00
O    1.0008064086737054E+01    5.3735087324373128E+00    5.3757728940148963E+00
O    1.2260297782908788E+01    8.6464340629359100E+00    3.9709777917871749E+00
O    2.3431345497116696E+00    1.0747243885368750E+01    6.8128217267251134E+00
O    7.0016612916654051E+00    6.6240597665992440E-01    1.0534341561687881E+01
O    5.1725047982212837E+00    1.0218495319125198E+01    1.0357205957141439E+01
O    1.1186316801594469E+01    5.8851524495734733E+00    1.0299193203865906E+01
O    1.2277001782589693E+01    8.9569716794260010E+00    9.0707884188585908E+00
H    1.2357840653884352E+01    2.3335995753223551E+00    1.1187202568866848E+01
H    1.1946181003856164E+01    1.5338243304142227E+00    9.8820686313880035E+00
H    5.5871540556998722E+00    3.4492983737422085E+00    9.0442905792542394E+00
H    6.8930493554899579E+00    3.0239782285795926E+00    7.9852283560216817E+00
H   -1.4374297116825083E-01    1.5098214846067592E+00    7.5263531243312354E+00
H   -3.8865416711533557E-01    3.0530974755005849E+00    7.9298823362641935E+00
H    1.2176354233152951E+01    2.9746344065101451E+00    1.1924463434419825E+00
H    1.2991627169715434E+01    2.9143170210549525E+00    2.5155346727351513E+00
H    1.1517585159651908E+01    4.3255122446515202E+00    1.1434691026735530E+01
H    1.2784953658522491E+01    5.0635466714147670E+00    1.2040055000820059E+01
H    6.9671401310522043E+00    1.7387343976973042E+00    4.1849967664902605E+00
H    6.2296009063340234E+00    6.8946782722648503E-01    5.1579113656949103E+00
H    7.7273594948732045E+00    7.2216808380994602E+00    5.4888761780282209E+00
H    9.1691701765471372E+00    6.6296086344990366E+00    4.9460727574881593E+00
H    1.2846883768257589E+01    1.1781070688348803E+01    8.9005192602392622E+00
H    1.1983330930254384E+01    1.0563456761595894E+01    8.3168613221530414E+00
H    3.5249173108183731E+00    3.8402074967242359E+00    9.9510006399901911E+00
H    2.4297337650181405E+00    4.9330989925198567E+00    9.5245628999133309E+00
H    2.1731627523311299E+00    4.5583640086452775E+00    6.3013579985291637E+00
H    2.8563500932209918E+00    3.8576048156113494E+00    7.5841394106043891E+00
H    1.1402120515027654E+00    7.1967347480530321E+00    1.1594244541637093E+00
H    2.2451038169254343E+00    6.0044688738684133E+00    1.0028737587403687E+00
H    2.8159635337991036E+00    8.9701748198808371E+00    2.2995199891602964E+00
H    1.3289544665061559E+00    8.9939926467782243E+00    2.8983257079435276E+00
H    4.4550218369062637E+00    1.1540339425003696E+01    9.1644203320317441E+00
H    3.0505860859904241E+00    1.2474023132571048E+01    9.2862357274698510E+00
H    5.8591510063954200E+00    3.4580809397755821E+00    3.6616773633306998E+00
H    5.8328342793245165E+00    3.4003555439706599E+00    1.9823495664215818E+00
H    9.5573469725956128E-01    1.6451477306435327E+00    4.8407733836342377E+00
H    2.2282991647304282E+00    2.4813299829890232E+00    5.6872650230017250E+00
H    8.4431290012360876E+00    1.6050270153559638E+00    7.5442513472485748E+00
H    8.0660702671731137E+00    2.0137128293827620E+00    6.0338191030232471E+00
H    5.2179579256214401E+00    2.8944435585796700E+00    1.1676379626020765E+01
H    6.6808372388708221E+00    3.4137338960722805E+00    1.1974227321955068E+01
H    1.0787628803146543E+01    6.5181395670634821E+00    2.0987991922632805E+00
H    1.1679773573101453E+01    5.3602522151473764E+00    1.3423877172513243E+00
H    3.4353203684193363E+00    1.5422281194348109E+00    1.0899348788956608E+01
H    4.8360131199372614E+00    1.4266306188287403E+00    1.0089887937303633E+01
H    4.3860802582002512E+00    3.3639520802573899E+00    5.6883523933769666E+00
H    5.6851424648160744E+00    4.3694414775810939E+00    5.5473743673649789E+00
H    6.2905172776230316E+00    1.1824099733746863E+01    1.7188529435634368E+00
H    5.6254822935020696E+00    1.2118652077614314E+01    3.2827489265270349E-01
H    3.5448338646082242E+00    1.3905272139791454E+00    2.1815170599105596E+00
H    2.6082617908451264E+00    2.2011793681997869E+00    3.2448585926836730E+00
H    7.1214310944127011E+00    5.8746986475792635E+00    7.5240902705245754E+00
H    8.6555160452210380E+00    5.7349833608755096E+00    7.0296645633629309E+00
H    6.0004465275650123E+00    5.6511979030142570E+00    1.1673025686980044E+01
H    6.2576534574142864E+00    6.3249880564331935E+00    1.3168261180251902E+01
H    1.1110393485508947E+01    1.2636559250997770E+01    1.1695509562619391E+01
H    1.0264574453193029E+01    1.2297166054266805E+01    1.3044673119309934E+01
H    9.9063257583770135E+00    4.0523254539286091E+00    2.7328096710819838E+00
H    8.5320976562309543E+00    3.4662435851513660E+00    2.9418258347989794E+00
H    1.4549325922375247E+00    6.6684406032651271E+00    7.1063381287423013E+00
H    1.0013233336711824E+00    6.1758231958589551E+00    5.6553319488926688E+00
H    7.9834584102604467E+00    3.6965662970358100E+00    9.9295362401111902E+00
H    8.0702893407898895E+00    2.3148727995364164E+00    1.0750118168091175E+01
H    1.1741851247338126E+01    1.0457041172522482E+01    1.2099135806994433E+01
H    1.2145140467199726E+01    8.9346530857761799E+00    1.2412210742863364E+01
H    3.3373535314763529E+00    7.6121200308666532E+00    7.8531045761949922E+00
H    3.8438071109318463E+00    6.2417161568831627E+00    8.6114175129816299E+00
H    3.1132077807634224E+00    7.6196920981178566E+00    1.1070308623801818E+01
H    4.4752997918975934E+00    7.6309327249731771E+00    1.2076616644959653E+01
H    1.1595109347938831E+01    4.9846383472196916E+00    7.0588447442732489E+00
H    1.0300198428129512E+01    4.1359917521743057E+00    7.3179795841151201E+00
H    1.0066803629045152E+01    8.9449101926876065E+00    1.8648409458419730E+00
H    9.5721275817980835E+00    8.2654871620118548E+00    4.9820470823372848E-01
H    1.3188214514394461E+00    6.6901027276297507E+00    9.6503048603160302E+00
H    1.4021624816975375E+00    6.4512365186885079E+00    1.1227722789147867E+01
H    4.1225373888741697E+00    1.3301382656581691E+00    5.2661059713498863E+00
H    4.6863100279913263E+00    6.4323888154009512E-01    6.6181558656211905E+00
H    9.4703533710557632E+00    1.2334177792058945E+01    8.7409520154269664E+00
H    8.8486737260985073E+00    1.1353175343935870E+01    7.5414016813718163E+00
H    1.7346635260617682E+00    1.0023247752455710E+01    1.4531246290863353E-01
H    3.3374323737187739E+00    9.8445600332824483E+00   -2.3573946363539300E-01
H    7.0505799823412101E+00    1.1506005604268305E+01    4.1255571139601841E+00
H    6.4716019298301592E+00    9.9354966266939417E+00    3.7910911532774616E+00
H    1.3268589592358946E+00    5.8377393429900692E-01    1.1128929736799638E+01
H    2.5223619020801005E+00   -5.4513600115532068E-01    1.1460522258349492E+01
H    8.7695024945573365E+00    1.8730405160140591E+00    9.9029984538942273E-01
H    8.0908940305258454E+00    3.3984351975149973E-01    9.9164118000327217E-01
H    1.1203607709246135E+00    8.3716512006963928E+00    8.1792323344822577E+00
H    2.0883187077766370E+00    8.9941496096235962E+00    7.0138877035397105E+00
H    8.9092455661171286E+00    7.7938840102078286E+00    9.2222118549484584E+00
H    9.0650442925882331E+00    8.4492400512115378E+00    1.0614283870982465E+01
H    1.0125293357175085E+01    7.6972294325267958E+00    6.4507709233858872E+00
H    1.0499855152539002E+01    9.1992705817146589E+00    6.1555311709813072E+00
H    3.4971231604226398E+00    3.9586904012079018E+00    2.1122844778206908E+00
H    4.0584146620667818E+00    4.5845739999388071E+00    7.4299547661154797E-01
H    7.3547300979709247E+00    9.3907717765818042E+00    1.2034662471096370E+01
H    7.3341917810681085E+00    7.7711469163740121E+00    1.2054219542751586E+01
H    7.8271815569081014E+00    1.0161811172290207E+01    5.7814619639484439E+00
H    7.7120113817887841E+00    9.5092512996362348E+00    7.2843726304680745E+00
H    5.2899463871889383E+00    6.4889429596079280E+00    6.3929757321027507E+00
H    4.8678252868837957E+00    6.3175211180863045E+00    4.8313586361434879E+00
H    1.1521862541305532E+01    2.1923283626799761E+00    4.2496614328179483E+00
H    1.1222791846957692E+01    7.8414795598395071E-01    4.7829538343863351E+00
H    8.8119942350217961E+00    9.6778779613704007E+00    3.9666686831537854E+00
H    9.9342844970876332E+00    1.0814156988790748E+01    3.7816372858600911E+00
H    3.1082289528956646E+00    1.0546326407174615E+01    5.2868803913859157E+00
H    4.3132584907103686E+00    1.1455620653058000E+01    5.0610780320728415E+00
H    4.2220406784278464E-01    7.3045102192445661E+00    3.8013135649940124E+00
H    2.9772343931216400E-01    5.7724401932041598E+00    3.4526995513598222E+00
H    7.5860591209726564E+00    6.5678847601546844E+00    3.2915836809344206E+00
H    6.6758385347283804E+00    5.3831754309176993E+00    2.5200133494032300E+00
H    3.8532534172199120E+00    6.3060046348704235E+00    2.8123783749705891E+00
H    2.7953246440735406E+00    6.5485847389781373E+00    3.9537741358610647E+00
H    5.5553176437610912E+00    8.0120599991626857E+00    8.6583941104723880E+00
H    6.9993930795499137E+00    7.4780238970675832E+00    8.4104344163928104E+00
H    9.5571588990614824E+00    7.3280446145766831E-01    3.0174818797267360E+00
H    8.9237164310791943E+00    1.3437510586171938E-01    4.4076447871975528E+00
H    3.8482457315667373E+00    1.1174438455171149E+01    1.3441470566656797E+00
H    3.9626056228576783E+00    1.0964278466897751E+01    3.0102551897951453E+00
H    5.9449661422371651E+00    7.8891857853090182E+00    2.7995741535958891E+00
H    4.7652120121302639E+00    8.7229381074891030E+00    3.5906717261657701E+00
H    1.0905815782848423E+01    5.5302201800697768E+00    4.9342869455825893E+00
H    9.5033245323311579E+00    4.6732708376730301E+00    4.7171193166482173E+00
H    1.1491942104116873E+01    9.0018887406788544E+00    3.3983649908367455E+00
H    1.1959903629039358E+01    8.7851547644293753E+00    4.9401026898658538E+00
H    2.9404439844275783E+00    1.1333326721638326E+01    7.4881123877729658E+00
H    1.3993518978819326E+00    1.1120275827042857E+01    6.8063456551226178E+00
H    7.2181951384383964E+00    1.2809608485323354E-01    9.7032371258682719E+00
H    7.1648660378593743E+00    1.0772078745127321E-01    1.1367500988399550E+01
H    4.8113412051056024E+00    9.3237474535606015E+00    1.0837702423611848E+01
H    6.0816481698036178E+00    9.8060697913096622E+00    1.0186927365163323E+01
H    1.0565212262638722E+01    6.7306908548559576E+00    1.0314443980527853E+01
H    1.1239043366237526E+01    5.5938377372085011E+00    9.3143651163972301E+00
H    1.2188456954751995E+01    8.9927460848977105E+00    1.0127821223536948E+01
H    1.1415764242458147E+01    8.6329965781023006E+00    8.6365688433572227E+00
     &END COORD
     &VELOCITY
           2.4353373553015486E-04   -1.2006097602712064E-04    8.6380096427508363E-05
           5.1311970177469154E-05   -1.2708266216462523E-06   -1.4048482607166901E-05
          -1.3298767757261617E-04   -8.3910828186614002E-05   -1.7227772179773199E-04
           3.2311111387369693E-04   -2.8974228281282904E-04    2.2815855771195594E-04
           3.6807112799868298E-04   -1.6540691872319593E-04    8.2168021723017282E-05
           8.6843810077362905E-05   -1.6733145785011435E-04    2.3233906169798773E-04
          -1.9144732815526546E-04    3.6490306373286974E-05    1.7692428816369618E-04
          -2.7339212137220868E-04   -2.0181330328033995E-06   -2.5185283188761397E-04
          -2.9114797156466217E-04    1.4202524656996483E-04   -9.4207613533139306E-05
           4.9604684382274317E-05    1.9764986075544806E-04   -3.9675655900197919E-05
          -1.0338266296047034E-04    2.5533554886779196E-04   -1.7753567723057700E-04
           1.2393271803165661E-04   -5.1522817966855123E-05    2.4869105054697274E-04
           3.7171385610593851E-05    1.3912087635367177E-04   -2.6001104941751510E-04
          -9.0584380442094073E-05   -5.4256969624853909E-05    1.3571849163664955E-04
          -1.3532069033854386E-05    2.9312535024509799E-04   -1.1035216194442739E-04
           3.4365663856444347E-04    1.2592891247546181E-04    1.2984947778464477E-04
           3.1061310688506063E-05   -2.1491061234663993E-04    1.3642911352187401E-04
          -1.1197980598929132E-04    8.8708519144871357E-05    8.1551359029822032E-05
           7.2553977150509278E-05   -7.4882564047928067E-05   -3.7593240431261622E-05
          -3.9311008770249220E-05    7.7794970773749684E-05   -4.9503853884708123E-05
           1.3050850736357074E-04    3.2997372840677808E-05    2.3384938882076479E-04
          -2.3506710107527046E-04   -1.3038351983434425E-04   -7.8872779761293552E-05
           2.2656471395837875E-04    3.8984618372475678E-06   -1.0674489559583941E-04
          -4.8910812396597988E-04   -8.8250996373473342E-05    4.1168871694014127E-05
          -2.3516505104814037E-04    3.0141522873761048E-05   -4.3307021528348600E-05
           2.3874077440450329E-04    1.6479626533091334E-04   -6.5961174414211976E-06
           2.1570400441258300E-06   -3.6687604474216806E-04    1.9056449024738966E-05
           1.5263290745991817E-04   -4.5423683353050018E-05   -4.7828240980683410E-05
          -2.4361660474177778E-04   -1.5799538490570640E-04    1.4701044899491033E-04
          -4.6332302278643044E-05    6.6958418740821780E-05   -1.4093723621371197E-04
           7.0402526349869446E-05    1.4787938508871548E-04    2.3294646136585054E-04
          -1.0541845847350809E-04    9.0959878374116803E-05    1.4239486316509125E-04
           3.9447066267453608E-04    6.7697585287229055E-05    1.1078543440030554E-04
          -7.7642050395788250E-05   -1.2536442818424925E-04   -1.9896428319768540E-04
           4.0834731830733219E-04    1.4767279244960480E-04    2.0697580191218733E-05
          -2.3059415804867160E-04   -1.2069261926544825E-04    1.1528847271933049E-04
          -2.2453224222768783E-04    3.2508315210013998E-04   -1.1011175869253390E-04
          -2.5223464561183981E-05    3.9102949516974433E-04    1.6353834116370871E-04
           2.2717843315431067E-05   -6.2765751651017242E-06    4.4671040029596953E-05
          -2.2749659830670097E-04   -6.9576305510835349E-06    6.3788388337351648E-05
          -7.5841302718674639E-05    8.7087799011797550E-05   -2.6939094015330611E-04
          -1.5166914072064586E-04   -1.6482446184619613E-04   -8.8619423403478944E-05
           8.3255811681241664E-06   -5.3065384631740379E-05   -7.5044278376132023E-05
           6.6403553283500715E-05    1.1865592146628390E-04   -1.6876922794200656E-04
          -3.6854176965554406E-04   -4.4916679521351242E-04   -7.2212204725780591E-05
          -1.2514834926113377E-04   -2.1658705550757027E-04    1.4279407557464389E-05
           1.5301292386406970E-04    7.8212466737187747E-05   -2.6042789655711477E-04
           1.1597437780946462E-04    1.3153166326554085E-04    1.9714489345684306E-05
          -2.7586288468651347E-05    4.9135802991015907E-05   -8.2847135185054247E-05
           1.7533037836997317E-04   -1.0200057778960311E-04   -1.5955910870801462E-05
           9.1305293484316084E-06   -1.7063363096284819E-04   -1.2704533408680309E-04
           2.0532414020172366E-04   -1.8523108331213478E-04    1.5576953260040710E-04
          -9.5082342048873351E-05    3.8898283928664410E-04    6.8143354604027919E-05
          -3.3468517683528849E-05    1.1413973594041710E-04    4.8372670606218468E-05
          -3.2167308794196699E-04   -6.7373694363080848E-05   -3.3440505798341947E-04
          -1.0565699375421622E-04   -1.8612919959471987E-04   -4.1185047197027644E-05
           3.0227443464043188E-04   -1.9476823840303141E-08   -4.0898192670762544E-05
           3.4132859750853517E-04   -7.5666618758917994E-05    3.1369871723447348E-04
           4.8774504487713177E-06    9.5432986768088400E-05    4.0463993790627741E-05
          -7.3525642130896482E-05   -1.1023344657366805E-04   -1.6990266178694701E-04
          -9.5305467321145211E-05    1.5924492797727478E-04    1.0050784054824630E-04
           2.9577992716570248E-04   -2.0302338272441592E-04   -3.8000268543470212E-06
           3.3426751500527709E-05    2.9960856876337383E-05    2.2957098674574805E-05
           2.1247046209969079E-04   -1.8773508816526197E-04   -7.1323934923543160E-05
          -4.5158839413610478E-04   -3.6143060078334190E-05   -6.1976176341279211E-04
           9.6706711087945194E-04   -4.1494673937986584E-04   -1.4270244722035083E-03
           7.4657709739406135E-04    7.4979183341445320E-04   -2.9716006647371508E-05
           1.1944835029930620E-03   -2.4887952169180892E-04   -4.6965328168167522E-04
           3.3415678178427740E-04   -4.4057529885945321E-04   -4.5347033645523355E-04
           1.1012796129975799E-03    2.9083917956262213E-04   -1.2194190254991816E-03
           2.2415342341849449E-04    1.5937251548483553E-03   -3.7781211911395865E-04
           1.0073465758506967E-03   -6.8157982680521281E-04    2.6183752026500312E-04
          -6.9769183643193943E-05    2.4841597118272899E-05   -1.3349984299893610E-04
          -6.5395783735053552E-04   -1.1729839030572792E-04    1.7209949838052318E-04
          -6.3912725034505292E-04   -9.4833908164317418E-04   -2.5753189732408762E-04
          -3.9187509729025091E-04   -2.4417797176574105E-04   -5.0822500047907984E-04
           2.8904185307094757E-04   -2.0455475311396795E-03   -7.4488003303618692E-04
           3.8533435941627016E-04   -1.5649598638854214E-03   -8.1999331589469808E-04
           6.6163782211152086E-04   -2.0530137992943819E-04   -4.7022778535413040E-04
          -4.8571775216891690E-05   -1.4283455067445672E-03    8.4970777264463024E-04
          -5.1040502072379910E-04    9.0124041077129099E-04   -4.3717828657773548E-04
           2.7962496774017361E-04    1.1112791910167001E-04   -5.6980553869878420E-04
          -1.5080494509571065E-03    7.3672779723174965E-04   -5.7541529093251345E-06
           2.4475429620624277E-04    9.7437756642624414E-04   -4.8339679943170901E-04
          -8.5981680080319400E-05    5.9512037266898907E-04   -4.8949501762131527E-05
          -6.8266467564669097E-04   -5.5567223333673763E-04    7.1350489601885092E-04
           4.8033714500427823E-05    6.5011279413954503E-04   -7.7943973949871925E-04
           8.0491911093036463E-05   -7.8343749752691561E-04    7.2435736498633360E-04
           2.5839724571437956E-04    7.5578985185828886E-05   -5.8507007757552189E-04
           3.2468632064750402E-04   -2.7324024724308506E-04    2.5249479694656996E-04
          -1.0539062839305055E-03    5.0616494373573098E-04    7.1049452486548180E-04
           8.0541579377151052E-04   -1.4428395473391987E-04   -9.1111624630206415E-04
          -9.3901405511189671E-05   -1.7440336409805320E-04   -6.6695306718473366E-04
          -5.9667439631864625E-04    2.1020879938560984E-03   -1.6524975843990904E-04
          -5.9413689338823491E-04   -1.8314218673435776E-04   -3.0878549940565881E-04
          -1.1299139623095717E-04   -1.9706794256044849E-04    5.4164798334590419E-04
           3.7379192866489168E-04   -2.2187500988918912E-04   -3.6215118741295550E-04
          -5.2111287106942753E-04    8.9091209793594483E-04   -5.6207250900484809E-04
           6.7919292605934803E-04    1.3343181454084394E-04   -5.4958333089134349E-04
          -5.0955912351850734E-05   -7.8811310899802329E-04    5.3306738439186483E-04
          -8.4615276352764310E-05   -4.3969810880309309E-04   -1.5061331385084458E-03
           1.9621493944463520E-04    7.0658921104195017E-04    7.9834173948351592E-04
          -3.1086266728980893E-04    7.4710976671376608E-04    4.9983161015974365E-04
          -7.7088036734154080E-04    8.7923124000045610E-04    4.4906439902295687E-04
           4.7843808737823234E-04    2.0885304144709687E-04    9.9081078441634910E-04
           2.7383478090721068E-04   -1.2076470168018228E-05    2.0312636572833464E-03
           2.2238602224728917E-04    4.5732113706374480E-04    2.0297495633907290E-03
          -1.3983314819716094E-04    6.4110517558944511E-04    2.3541721874914602E-04
           1.0634351964010926E-03   -8.1406755449556071E-04    2.5592615928502117E-04
           5.5764666824978577E-04   -2.4944020396268558E-04    1.0095491375663684E-03
           8.2355304834980710E-04    4.6265598281428565E-04    1.0873683440526653E-03
           1.0554542732455357E-03    1.4711843503847056E-03   -1.9257994644108307E-04
          -5.9301436634945348E-04    1.4338243179663165E-03   -1.0518598720407138E-03
           1.7009542630343498E-04   -2.7229621441693055E-04   -1.8275874433881746E-04
          -3.9794180044256679E-04    1.1377334676068369E-03    1.5111872074034859E-04
          -2.1010779021485000E-04    2.5908254733603484E-04    1.2965840740994414E-03
           5.7014687399613935E-04    4.3663748723994742E-04   -1.4622705924177419E-04
           2.7451658005959995E-04   -1.1055104188468942E-04   -2.7011911347588427E-04
          -1.5488517943985185E-03   -4.8268639177277174E-04    1.0661735519976448E-03
           1.1223093817083185E-04    6.1336181167597739E-04   -2.4337739021393747E-04
          -8.4642821008354407E-04    2.7314900746504869E-04    4.4966165017623822E-04
          -9.0281864257683257E-04    4.6471968390884302E-04   -2.6632644265961133E-04
          -1.1909602595317091E-03    3.2546725744062079E-05   -5.5177771592719476E-05
           2.6878284876581150E-04   -1.1019214431274367E-03    6.7804196597995086E-04
           3.1926309387734808E-04    1.0177813137523094E-03   -3.0847823993296959E-04
          -4.2284471691117845E-04    4.3959034011402078E-04   -8.2960000475960558E-04
           4.5763012013135500E-04   -7.2873611065467077E-04   -1.9810871954478788E-04
          -2.5435809607689069E-04   -2.9857092395244413E-04    4.0812967128285165E-04
          -1.7369381693936874E-04    6.5701533355432234E-04    1.2674523034306607E-03
           2.5615963333189143E-04   -1.0911306529307692E-06    1.1679000472756918E-03
          -1.6308109884587060E-05    1.3149337651365996E-03    1.0407917755805999E-03
           8.9763869709208900E-04   -3.3652501425271051E-04    5.8254652403912403E-04
           1.0486726918971527E-03    1.4387708623384541E-04   -1.3227328924970755E-03
          -7.1280006661931085E-04    3.7576614693794600E-04   -7.8229807966951302E-04
          -4.9597517540051050E-05    2.0943390433778887E-05   -3.3577883355608744E-04