 # Version information for this restart file 
 # current date 2023-07-27 13:23:04.823
 # current working dir /mnt/lustre/indy2lfs/work/tc047/tc047/mrnuff-cirrus/cp2k/nuff-benchmarks/H2O-64-2node
 # Program compiled at                              Thu Jun 30 12:29:55 BST 2022
 # Program compiled on                                             cirrus-login3
 # Program compiled for                                             Cirrus-intel
 # Source code revision number                                       git:e635599
 &GLOBAL
   PRINT_LEVEL  LOW
   PROJECT_NAME H2O-64
   RUN_TYPE  MD
 &END GLOBAL
 &MOTION
   &MD
     ENSEMBLE  NVE
     STEPS  10
     TIMESTEP     4.9999999999999994E-01
     STEP_START_VAL  10
     TIME_START_VAL     4.9999999999999982E+00
     ECONS_START_VAL    -1.1007588181101598E+03
     TEMPERATURE     3.0000000000000000E+02
     &AVERAGES  T
       &RESTART_AVERAGES
         ITIMES_START  1
         AVECPU     5.1223532455507668E+00
         AVEHUGONIOT     0.0000000000000000E+00
         AVETEMP_BARO     0.0000000000000000E+00
         AVEPOT    -1.1010668160173041E+03
         AVEKIN     3.0070034549306268E-01
         AVETEMP     3.3142598855973972E+02
         AVEKIN_QM     0.0000000000000000E+00
         AVETEMP_QM     0.0000000000000000E+00
         AVEVOL     1.2909542132085598E+04
         AVECELL_A     2.3458682268415796E+01
         AVECELL_B     2.3458682268415796E+01
         AVECELL_C     2.3458682268415796E+01
         AVEALPHA     9.0000000000000000E+01
         AVEBETA     9.0000000000000000E+01
         AVEGAMMA     9.0000000000000000E+01
         AVE_ECONS    -1.0896372627595076E+01
         AVE_PRESS     0.0000000000000000E+00
         AVE_PXX     0.0000000000000000E+00
       &END RESTART_AVERAGES
     &END AVERAGES
   &END MD
 &END MOTION
 &FORCE_EVAL
   METHOD  QS
   &DFT
     BASIS_SET_FILE_NAME GTH_BASIS_SETS
     POTENTIAL_FILE_NAME POTENTIAL
     &SCF
       SCF_GUESS  ATOMIC
       &OT  T
         MINIMIZER  DIIS
       &END OT
       &PRINT
         &RESTART  OFF
         &END RESTART
       &END PRINT
     &END SCF
     &QS
       EPS_DEFAULT     9.9999999999999998E-13
       EXTRAPOLATION  PS
       EXTRAPOLATION_ORDER  3
     &END QS
     &MGRID
       CUTOFF     2.8000000000000000E+02
       REL_CUTOFF     3.0000000000000000E+01
     &END MGRID
     &XC
       DENSITY_CUTOFF     1.0000000000000000E-10
       GRADIENT_CUTOFF     1.0000000000000000E-10
       TAU_CUTOFF     1.0000000000000000E-10
       &XC_FUNCTIONAL  NO_SHORTCUT
         &PADE  T
         &END PADE
       &END XC_FUNCTIONAL
     &END XC
   &END DFT
   &SUBSYS
     &CELL
       A     1.2413800000000002E+01    0.0000000000000000E+00    0.0000000000000000E+00
       B     0.0000000000000000E+00    1.2413800000000002E+01    0.0000000000000000E+00
       C     0.0000000000000000E+00    0.0000000000000000E+00    1.2413800000000002E+01
       MULTIPLE_UNIT_CELL  1 1 1
     &END CELL
     &COORD
O    1.2265692089483920E+01    1.3554390129941574E+00    1.0875425741210389E+01
O    6.4523125712781608E+00    3.7059030017227950E+00    8.6472703373292976E+00
O    7.7679434805416309E-02    2.1684363409614509E+00    8.2608499727949969E+00
O    1.2086328917682438E+01    2.6383236471455231E+00    2.1708319631148174E+00
O    1.2290563434792615E+01    4.1705987030843721E+00    1.2102197401500401E+01
O    7.2035546534508024E+00    9.4146440982946278E-01    4.7596753308530344E+00
O    8.3332259924708012E+00    7.2077559238206046E+00    4.6827252174467953E+00
O    1.2331820354972857E+01    1.1521085584601423E+01    8.0815267568456193E+00
O    3.2742305248729333E+00    4.4591006237005049E+00    9.1745323461749368E+00
O    2.8601657947009862E+00    3.7871321994318845E+00    6.5410904120532525E+00
O    1.3797135980521396E+00    6.3917883108528395E+00    5.6509499049347356E-01
O    1.8717778176469415E+00    8.6859327223316978E+00    2.0908475002936129E+00
O    3.7724126920716259E+00    1.2107291686118630E+01    8.6205990989002697E+00
O    6.4253612010428096E+00    3.6667844669334797E+00    2.7875787966085834E+00
O    1.9996801569167901E+00    1.8525818618605199E+00    4.8671305057775287E+00
O    8.2870264289442623E+00    2.4221945186202674E+00    6.9417301194039940E+00
O    5.7524965525743950E+00    3.3354063225407642E+00    1.2486444073906808E+01
O    1.1313041873263915E+01    5.6568394091370964E+00    2.2481538681309510E+00
O    4.2889086332742661E+00    2.1146774663677550E+00    1.0586400462686395E+01
O    5.3988008779578962E+00    3.3584215761666258E+00    5.4859980676067357E+00
O    6.5093803283318303E+00    1.1870555907453204E+01    7.1448610258285306E-01
O    3.2525927590515651E+00    2.3434818290721027E+00    2.4132514479857936E+00
O    8.0086796499284496E+00    6.3565335203084361E+00    7.4977752039617105E+00
O    5.9288585788259498E+00    6.5082801666044663E+00    1.2195796701642447E+01
O    1.0610385294795513E+01    1.1861264429738565E+01    1.2200574174939876E+01
O    9.3403690756567475E+00    3.6890996107164291E+00    3.5273423653475313E+00
O    1.1111278086577991E+00    5.7890355206450899E+00    6.6473009501981410E+00
O    8.0194995343338231E+00    3.3269739508474334E+00    1.0869758841489642E+01
O    1.2376084676796035E+01    9.6748049821028133E+00    1.1772442429127109E+01
O    4.2098962719503685E+00    7.0914037241393073E+00    8.1403049780540666E+00
O    3.7839656891277480E+00    8.2290488153627557E+00    1.1585038748792247E+01
O    1.1076296436002583E+01    4.5429033328727986E+00    7.8327522122959925E+00
O    1.0435269965490649E+01    8.4217711221836691E+00    1.0328413587523617E+00
O    1.9828015281269806E+00    6.4005825276161161E+00    1.0353823655978529E+01
O    4.7041682767469473E+00    5.6227133611204949E-01    5.6097237226912036E+00
O    8.7178718108893598E+00    1.2242115811187439E+01    8.0976567639231014E+00
O    2.6327341025096080E+00    1.0520521873272962E+01    8.2905623926710623E-02
O    7.2399931187465754E+00    1.0511642196931648E+01    4.2432664330032699E+00
O    2.2807064781620934E+00    2.7612056427358389E-01    1.0807250569989323E+01
O    8.8632061138829759E+00    9.4642072500202634E-01    1.3400856795967693E+00
O    1.9443088048744237E+00    8.0893935868696971E+00    7.5355059867712111E+00
O    9.6598248299588363E+00    8.0355046451624776E+00    9.8565400345209024E+00
O    1.0903669851584308E+01    8.3307153998975441E+00    6.4773146916029809E+00
O    3.5124567442238033E+00    4.8693650210823520E+00    1.5451764009707920E+00
O    7.9775830453592462E+00    8.6026723333304247E+00    1.2050849513769840E+01
O    8.3694035479504656E+00    1.0019371052443152E+01    6.6836141760229850E+00
O    5.6546743218574438E+00    6.0810664230943132E+00    5.5283846573827375E+00
O    1.1742547847645335E+01    1.6241840639034384E+00    5.0859575162072428E+00
O    9.7585719615141926E+00    9.8110347715519666E+00    3.5364867774940545E+00
O    3.9627876574400824E+00    1.0548914651573625E+01    4.6848634346389897E+00
O    9.0110847254961002E-01    6.3699180308686110E+00    4.0614677068442635E+00
O    6.8825857356122233E+00    6.4084220847945410E+00    2.5046902581440000E+00
O    3.8180799995398487E+00    6.6391276583279302E+00    3.7786506828598387E+00
O    6.5639457974898887E+00    8.3081696931560440E+00    8.8142644496196052E+00
O    9.7792965800925238E+00    1.3440562766333780E-01    3.8518038249085360E+00
O    4.1040770115659555E+00    1.1645978558721147E+01    2.2167390496172930E+00
O    5.3225394392111127E+00    8.7370879819811123E+00    2.7520568939068597E+00
O    1.0008064086737193E+01    5.3735087324373163E+00    5.3757728940148803E+00
O    1.2260297782908836E+01    8.6464340629357217E+00    3.9709777917872264E+00
O    2.3431345497116873E+00    1.0747243885368857E+01    6.8128217267251134E+00
O    7.0016612916653491E+00    6.6240597665991308E-01    1.0534341561687869E+01
O    5.1725047982212997E+00    1.0218495319125227E+01    1.0357205957141327E+01
O    1.1186316801594639E+01    5.8851524495734129E+00    1.0299193203865864E+01
O    1.2277001782589737E+01    8.9569716794258412E+00    9.0707884188586547E+00
H    1.2357840653884640E+01    2.3335995753220593E+00    1.1187202568867571E+01
H    1.1946181003856097E+01    1.5338243304148960E+00    9.8820686313881065E+00
H    5.5871540556989689E+00    3.4492983737433485E+00    9.0442905792528077E+00
H    6.8930493554917058E+00    3.0239782285802810E+00    7.9852283560220876E+00
H   -1.4374297116771026E-01    1.5098214846080007E+00    7.5263531243296136E+00
H   -3.8865416711485445E-01    3.0530974755004849E+00    7.9298823362635700E+00
H    1.2176354233151343E+01    2.9746344065124175E+00    1.1924463434423536E+00
H    1.2991627169715679E+01    2.9143170210543605E+00    2.5155346727348604E+00
H    1.1517585159650682E+01    4.3255122446517786E+00    1.1434691026736100E+01
H    1.2784953658522582E+01    5.0635466714148798E+00    1.2040055000824003E+01
H    6.9671401310514076E+00    1.7387343976963026E+00    4.1849967664888510E+00
H    6.2296009063342250E+00    6.8946782722688293E-01    5.1579113656957460E+00
H    7.7273594948736681E+00    7.2216808381009878E+00    5.4888761780282280E+00
H    9.1691701765483362E+00    6.6296086345004221E+00    4.9460727574883991E+00
H    1.2846883768257296E+01    1.1781070688347741E+01    8.9005192602400083E+00
H    1.1983330930253299E+01    1.0563456761596409E+01    8.3168613221521159E+00
H    3.5249173108181298E+00    3.8402074967238073E+00    9.9510006399901041E+00
H    2.4297337650182116E+00    4.9330989925195263E+00    9.5245628999138390E+00
H    2.1731627523321766E+00    4.5583640086459356E+00    6.3013579985288564E+00
H    2.8563500932208075E+00    3.8576048156102565E+00    7.5841394106043811E+00
H    1.1402120515028200E+00    7.1967347480520987E+00    1.1594244541644960E+00
H    2.2451038169258024E+00    6.0044688738685528E+00    1.0028737587394303E+00
H    2.8159635337987741E+00    8.9701748198829936E+00    2.2995199891602796E+00
H    1.3289544665052697E+00    8.9939926467802280E+00    2.8983257079421989E+00
H    4.4550218369062851E+00    1.1540339425003690E+01    9.1644203320314492E+00
H    3.0505860859904526E+00    1.2474023132571794E+01    9.2862357274691316E+00
H    5.8591510063954395E+00    3.4580809397752938E+00    3.6616773633308428E+00
H    5.8328342793241568E+00    3.4003555439709503E+00    1.9823495664216941E+00
H    9.5573469725945681E-01    1.6451477306431672E+00    4.8407733836347608E+00
H    2.2282991647301258E+00    2.4813299829898661E+00    5.6872650230012542E+00
H    8.4431290012354854E+00    1.6050270153562547E+00    7.5442513472490180E+00
H    8.0660702671722806E+00    2.0137128293820661E+00    6.0338191030235055E+00
H    5.2179579256211399E+00    2.8944435585784376E+00    1.1676379626021534E+01
H    6.6808372388710264E+00    3.4137338960725043E+00    1.1974227321954938E+01
H    1.0787628803147037E+01    6.5181395670639537E+00    2.0987991922637339E+00
H    1.1679773573101810E+01    5.3602522151475602E+00    1.3423877172514906E+00
H    3.4353203684203182E+00    1.5422281194348453E+00    1.0899348788958825E+01
H    4.8360131199369434E+00    1.4266306188281093E+00    1.0089887937304079E+01
H    4.3860802582001330E+00    3.3639520802573579E+00    5.6883523933757578E+00
H    5.6851424648163897E+00    4.3694414775810548E+00    5.5473743673656450E+00
H    6.2905172776235672E+00    1.1824099733744895E+01    1.7188529435635080E+00
H    5.6254822935017650E+00    1.2118652077613152E+01    3.2827489265255377E-01
H    3.5448338646089379E+00    1.3905272139788618E+00    2.1815170599113256E+00
H    2.6082617908454577E+00    2.2011793681996212E+00    3.2448585926838462E+00
H    7.1214310944121477E+00    5.8746986475799128E+00    7.5240902705224473E+00
H    8.6555160452211233E+00    5.7349833608767655E+00    7.0296645633614343E+00
H    6.0004465275634011E+00    5.6511979030139541E+00    1.1673025686980635E+01
H    6.2576534574139204E+00    6.3249880564333356E+00    1.3168261180251841E+01
H    1.1110393485509707E+01    1.2636559250997710E+01    1.1695509562619868E+01
H    1.0264574453192683E+01    1.2297166054267036E+01    1.3044673119309605E+01
H    9.9063257583777613E+00    4.0523254539285922E+00    2.7328096710826828E+00
H    8.5320976562308886E+00    3.4662435851517528E+00    2.9418258347988799E+00
H    1.4549325922392289E+00    6.6684406032649699E+00    7.1063381287419451E+00
H    1.0013233336713707E+00    6.1758231958588974E+00    5.6553319488925267E+00
H    7.9834584102595505E+00    3.6965662970362070E+00    9.9295362401110427E+00
H    8.0702893407891700E+00    2.3148727995363738E+00    1.0750118168091001E+01
H    1.1741851247338547E+01    1.0457041172522541E+01    1.2099135806995365E+01
H    1.2145140467201111E+01    8.9346530857762012E+00    1.2412210742863751E+01
H    3.3373535314762330E+00    7.6121200308664196E+00    7.8531045761945064E+00
H    3.8438071109316838E+00    6.2417161568822781E+00    8.6114175129806227E+00
H    3.1132077807619329E+00    7.6196920981181302E+00    1.1070308623803635E+01
H    4.4752997918973367E+00    7.6309327249732242E+00    1.2076616644960165E+01
H    1.1595109347938507E+01    4.9846383472198719E+00    7.0588447442738396E+00
H    1.0300198428130562E+01    4.1359917521731679E+00    7.3179795841143314E+00
H    1.0066803629045125E+01    8.9449101926870949E+00    1.8648409458416058E+00
H    9.5721275817975968E+00    8.2654871620117252E+00    4.9820470823400859E-01
H    1.3188214514404053E+00    6.6901027276309879E+00    9.6503048603153534E+00
H    1.4021624816988565E+00    6.4512365186904583E+00    1.1227722789148501E+01
H    4.1225373888738641E+00    1.3301382656578726E+00    5.2661059713496750E+00
H    4.6863100279912393E+00    6.4323888154093267E-01    6.6181558656211568E+00
H    9.4703533710555607E+00    1.2334177792058354E+01    8.7409520154267941E+00
H    8.8486737260976156E+00    1.1353175343935098E+01    7.5414016813728306E+00
H    1.7346635260623722E+00    1.0023247752454624E+01    1.4531246290955283E-01
H    3.3374323737185998E+00    9.8445600332826650E+00   -2.3573946363649120E-01
H    7.0505799823416035E+00    1.1506005604268346E+01    4.1255571139591236E+00
H    6.4716019298311345E+00    9.9354966266934515E+00    3.7910911532759441E+00
H    1.3268589592354652E+00    5.8377393429654389E-01    1.1128929736800213E+01
H    2.5223619020801054E+00   -5.4513600115599603E-01    1.1460522258348540E+01
H    8.7695024945574627E+00    1.8730405160143873E+00    9.9029984538936966E-01
H    8.0908940305247654E+00    3.3984351975121707E-01    9.9164118000593160E-01
H    1.1203607709252377E+00    8.3716512006964319E+00    8.1792323344823270E+00
H    2.0883187077758829E+00    8.9941496096231184E+00    7.0138877035387006E+00
H    8.9092455661162671E+00    7.7938840102107907E+00    9.2222118549491139E+00
H    9.0650442925885191E+00    8.4492400512115022E+00    1.0614283870982574E+01
H    1.0125293357173724E+01    7.6972294325282027E+00    6.4507709233850035E+00
H    1.0499855152540716E+01    9.1992705817147495E+00    6.1555311709791773E+00
H    3.4971231604223543E+00    3.9586904012080208E+00    2.1122844778206287E+00
H    4.0584146620671371E+00    4.5845739999387414E+00    7.4299547661185350E-01
H    7.3547300979706129E+00    9.3907717765814169E+00    1.2034662471098379E+01
H    7.3341917810683093E+00    7.7711469163742626E+00    1.2054219542753437E+01
H    7.8271815569079193E+00    1.0161811172290115E+01    5.7814619639483551E+00
H    7.7120113817892486E+00    9.5092512996358050E+00    7.2843726304682015E+00
H    5.2899463871902377E+00    6.4889429596090178E+00    6.3929757321028564E+00
H    4.8678252868843153E+00    6.3175211180867246E+00    4.8313586361428777E+00
H    1.1521862541305399E+01    2.1923283626798771E+00    4.2496614328181170E+00
H    1.1222791846958124E+01    7.8414795598365072E-01    4.7829538343863787E+00
H    8.8119942350228087E+00    9.6778779613701698E+00    3.9666686831548956E+00
H    9.9342844970869564E+00    1.0814156988791591E+01    3.7816372858595213E+00
H    3.1082289528956211E+00    1.0546326407174726E+01    5.2868803913860916E+00
H    4.3132584907103073E+00    1.1455620653057945E+01    5.0610780320726736E+00
H    4.2220406784289133E-01    7.3045102192447064E+00    3.8013135649944747E+00
H    2.9772343931242201E-01    5.7724401932041696E+00    3.4526995513589447E+00
H    7.5860591209720987E+00    6.5678847601551382E+00    3.2915836809347621E+00
H    6.6758385347287152E+00    5.3831754309176656E+00    2.5200133494030470E+00
H    3.8532534172202348E+00    6.3060046348704111E+00    2.8123783749707210E+00
H    2.7953246440733834E+00    6.5485847389783558E+00    3.9537741358609098E+00
H    5.5553176437611143E+00    8.0120599991623056E+00    8.6583941104737630E+00
H    6.9993930795505745E+00    7.4780238970677102E+00    8.4104344163925475E+00
H    9.5571588990616210E+00    7.3280446145788403E-01    3.0174818797267404E+00
H    8.9237164310792974E+00    1.3437510586053986E-01    4.4076447871977606E+00
H    3.8482457315653615E+00    1.1174438455171533E+01    1.3441470566657125E+00
H    3.9626056228562891E+00    1.0964278466898309E+01    3.0102551897952510E+00
H    5.9449661422375915E+00    7.8891857853094418E+00    2.7995741535953784E+00
H    4.7652120121315020E+00    8.7229381074891386E+00    3.5906717261667613E+00
H    1.0905815782848109E+01    5.5302201800697750E+00    4.9342869455827048E+00
H    9.5033245323313480E+00    4.6732708376729564E+00    4.7171193166484304E+00
H    1.1491942104117175E+01    9.0018887406780514E+00    3.3983649908358333E+00
H    1.1959903629037811E+01    8.7851547644300432E+00    4.9401026898652880E+00
H    2.9404439844276742E+00    1.1333326721637743E+01    7.4881123877730298E+00
H    1.3993518978819464E+00    1.1120275827042756E+01    6.8063456551227670E+00
H    7.2181951384392260E+00    1.2809608485290197E-01    9.7032371258685615E+00
H    7.1648660378597464E+00    1.0772078745095189E-01    1.1367500988399419E+01
H    4.8113412051052560E+00    9.3237474535610723E+00    1.0837702423612095E+01
H    6.0816481698036693E+00    9.8060697913097208E+00    1.0186927365163301E+01
H    1.0565212262637701E+01    6.7306908548548883E+00    1.0314443980528488E+01
H    1.1239043366237365E+01    5.5938377372081289E+00    9.3143651163970294E+00
H    1.2188456954752244E+01    8.9927460848982044E+00    1.0127821223537309E+01
H    1.1415764242457014E+01    8.6329965781039650E+00    8.6365688433579404E+00
     &END COORD
     &VELOCITY
           2.4353373553204915E-04   -1.2006097602765481E-04    8.6380096427237028E-05
           5.1311970177095538E-05   -1.2708266220440258E-06   -1.4048482606929149E-05
          -1.3298767757263441E-04   -8.3910828187871772E-05   -1.7227772179604240E-04
           3.2311111387381956E-04   -2.8974228281377181E-04    2.2815855771249471E-04
           3.6807112800063058E-04   -1.6540691872669492E-04    8.2168021724040146E-05
           8.6843810076514056E-05   -1.6733145784895653E-04    2.3233906169737223E-04
          -1.9144732815954112E-04    3.6490306371582215E-05    1.7692428816219643E-04
          -2.7339212137262231E-04   -2.0181330303534295E-06   -2.5185283188545305E-04
          -2.9114797156374038E-04    1.4202524657013524E-04   -9.4207613530263650E-05
           4.9604684381040650E-05    1.9764986075571119E-04   -3.9675655902148582E-05
          -1.0338266296021596E-04    2.5533554886898280E-04   -1.7753567722980857E-04
           1.2393271803265467E-04   -5.1522817966327611E-05    2.4869105054650545E-04
           3.7171385611994003E-05    1.3912087635361051E-04   -2.6001104941815478E-04
          -9.0584380438797299E-05   -5.4256969624770541E-05    1.3571849163623788E-04
          -1.3532069034069997E-05    2.9312535024547209E-04   -1.1035216194477794E-04
           3.4365663856296126E-04    1.2592891247667016E-04    1.2984947778405754E-04
           3.1061310688552955E-05   -2.1491061234605522E-04    1.3642911352265856E-04
          -1.1197980598886872E-04    8.8708519146645789E-05    8.1551359028554911E-05
           7.2553977148476304E-05   -7.4882564048496555E-05   -3.7593240431173950E-05
          -3.9311008769966073E-05    7.7794970772208843E-05   -4.9503853883093237E-05
           1.3050850736720906E-04    3.2997372846216286E-05    2.3384938882000446E-04
          -2.3506710107564283E-04   -1.3038351983565312E-04   -7.8872779762606155E-05
           2.2656471396004951E-04    3.8984618352042507E-06   -1.0674489559300994E-04
          -4.8910812396414367E-04   -8.8250996371267329E-05    4.1168871696053382E-05
          -2.3516505104748825E-04    3.0141522873539782E-05   -4.3307021529681301E-05
           2.3874077440314269E-04    1.6479626533109370E-04   -6.5961174402406437E-06
           2.1570400442976248E-06   -3.6687604474179466E-04    1.9056449024888837E-05
           1.5263290746248876E-04   -4.5423683352172647E-05   -4.7828240983827318E-05
          -2.4361660474355435E-04   -1.5799538490398520E-04    1.4701044899233440E-04
          -4.6332302277109020E-05    6.6958418742127512E-05   -1.4093723621067395E-04
           7.0402526351019202E-05    1.4787938508663021E-04    2.3294646136479317E-04
          -1.0541845847275518E-04    9.0959878376370697E-05    1.4239486316583287E-04
           3.9447066267515326E-04    6.7697585288088868E-05    1.1078543440182636E-04
          -7.7642050391501071E-05   -1.2536442818854320E-04   -1.9896428319601518E-04
           4.0834731830820974E-04    1.4767279244957282E-04    2.0697580191042987E-05
          -2.3059415804852347E-04   -1.2069261926443272E-04    1.1528847271928716E-04
          -2.2453224222716316E-04    3.2508315209909638E-04   -1.1011175869307931E-04
          -2.5223464559773278E-05    3.9102949516708603E-04    1.6353834116477240E-04
           2.2717843316432179E-05   -6.2765751653763424E-06    4.4671040030235047E-05
          -2.2749659830484007E-04   -6.9576305523560579E-06    6.3788388336487011E-05
          -7.5841302717265732E-05    8.7087799011668503E-05   -2.6939094015292355E-04
          -1.5166914072475563E-04   -1.6482446184702622E-04   -8.8619423404431537E-05
           8.3255811682010431E-06   -5.3065384632042275E-05   -7.5044278375060059E-05
           6.6403553283666530E-05    1.1865592146742174E-04   -1.6876922794205158E-04
          -3.6854176965704009E-04   -4.4916679521313159E-04   -7.2212204727597118E-05
          -1.2514834926147762E-04   -2.1658705550566174E-04    1.4279407558572370E-05
           1.5301292386260914E-04    7.8212466734890255E-05   -2.6042789655698613E-04
           1.1597437780964019E-04    1.3153166326661567E-04    1.9714489344880848E-05
          -2.7586288470245731E-05    4.9135802994882037E-05   -8.2847135185627017E-05
           1.7533037837112807E-04   -1.0200057779069316E-04   -1.5955910871055474E-05
           9.1305293481398090E-06   -1.7063363096602618E-04   -1.2704533408543092E-04
           2.0532414020169010E-04   -1.8523108330867694E-04    1.5576953259979483E-04
          -9.5082342048928741E-05    3.8898283928669007E-04    6.8143354604461152E-05
          -3.3468517684453931E-05    1.1413973594487111E-04    4.8372670606628676E-05
          -3.2167308794359140E-04   -6.7373694363569620E-05   -3.3440505798219329E-04
          -1.0565699375374385E-04   -1.8612919959712089E-04   -4.1185047197538812E-05
           3.0227443463849262E-04   -1.9476822715478962E-08   -4.0898192670969281E-05
           3.4132859751247110E-04   -7.5666618758884574E-05    3.1369871723480405E-04
           4.8774504470167575E-06    9.5432986765645245E-05    4.0463993790320736E-05
          -7.3525642130184432E-05   -1.1023344657209517E-04   -1.6990266178700807E-04
          -9.5305467322350938E-05    1.5924492797726871E-04    1.0050784054803225E-04
           2.9577992716547539E-04   -2.0302338272306625E-04   -3.8000268561994907E-06
           3.3426751503193037E-05    2.9960856874714549E-05    2.2957098675558553E-05
           2.1247046210015665E-04   -1.8773508816531282E-04   -7.1323934924454797E-05
          -4.5158839413151323E-04   -3.6143060075101424E-05   -6.1976176340438022E-04
           9.6706711087444293E-04   -4.1494673937518214E-04   -1.4270244722085425E-03
           7.4657709739930119E-04    7.4979183342389183E-04   -2.9716006670185181E-05
           1.1944835030001104E-03   -2.4887952168539164E-04   -4.6965328167253100E-04
           3.3415678178877250E-04   -4.4057529886031666E-04   -4.5347033647165244E-04
           1.1012796129968019E-03    2.9083917957430788E-04   -1.2194190254998106E-03
           2.2415342340720098E-04    1.5937251548698310E-03   -3.7781211911469342E-04
           1.0073465758536990E-03   -6.8157982681057267E-04    2.6183752026072123E-04
          -6.9769183686944834E-05    2.4841597132545546E-05   -1.3349984302998241E-04
          -6.5395783732968870E-04   -1.1729839026582123E-04    1.7209949840294586E-04
          -6.3912725034715628E-04   -9.4833908165772526E-04   -2.5753189732910661E-04
          -3.9187509728861832E-04   -2.4417797176324739E-04   -5.0822500047520826E-04
           2.8904185305839137E-04   -2.0455475311255736E-03   -7.4488003301121709E-04
           3.8533435944813573E-04   -1.5649598638902953E-03   -8.1999331588307445E-04
           6.6163782211058389E-04   -2.0530137993656769E-04   -4.7022778534515505E-04
          -4.8571775227164139E-05   -1.4283455067417876E-03    8.4970777263690736E-04
          -5.1040502072550759E-04    9.0124041077025102E-04   -4.3717828658201320E-04
           2.7962496772704316E-04    1.1112791910659947E-04   -5.6980553869036906E-04
          -1.5080494509485543E-03    7.3672779723406333E-04   -5.7541529057309501E-06
           2.4475429620095284E-04    9.7437756642004640E-04   -4.8339679942909891E-04
          -8.5981680078168370E-05    5.9512037265533550E-04   -4.8949501759295024E-05
          -6.8266467565509820E-04   -5.5567223333146179E-04    7.1350489600953524E-04
           4.8033714508408676E-05    6.5011279416016352E-04   -7.7943973949725807E-04
           8.0491911076586772E-05   -7.8343749750631360E-04    7.2435736498849485E-04
           2.5839724572175539E-04    7.5578985179252333E-05   -5.8507007756729713E-04
           3.2468632063773623E-04   -2.7324024723151928E-04    2.5249479695448198E-04
          -1.0539062839312161E-03    5.0616494373358447E-04    7.1049452487389813E-04
           8.0541579377055924E-04   -1.4428395473029841E-04   -9.1111624630167882E-04
          -9.3901405506916804E-05   -1.7440336410026641E-04   -6.6695306718247689E-04
          -5.9667439632116940E-04    2.1020879938580764E-03   -1.6524975845038341E-04
          -5.9413689338989385E-04   -1.8314218673813116E-04   -3.0878549939448383E-04
          -1.1299139624254651E-04   -1.9706794257145913E-04    5.4164798332444013E-04
           3.7379192866142223E-04   -2.2187500989941715E-04   -3.6215118741648040E-04
          -5.2111287106516510E-04    8.9091209793799419E-04   -5.6207250901059804E-04
           6.7919292607718923E-04    1.3343181452380468E-04   -5.4958333088885340E-04
          -5.0955912357185958E-05   -7.8811310898964653E-04    5.3306738440553651E-04
          -8.4615276344522964E-05   -4.3969810880098892E-04   -1.5061331384965003E-03
           1.9621493943987659E-04    7.0658921104004870E-04    7.9834173948922121E-04
          -3.1086266728813650E-04    7.4710976671398346E-04    4.9983161015118430E-04
          -7.7088036733626074E-04    8.7923124001146585E-04    4.4906439902871783E-04
           4.7843808737616151E-04    2.0885304143140372E-04    9.9081078442717335E-04
           2.7383478089765582E-04   -1.2076470177898843E-05    2.0312636572814699E-03
           2.2238602224775597E-04    4.5732113707785309E-04    2.0297495634022849E-03
          -1.3983314819563327E-04    6.4110517558843658E-04    2.3541721874996641E-04
           1.0634351963798999E-03   -8.1406755449976080E-04    2.5592615926616445E-04
           5.5764666825147149E-04   -2.4944020395299791E-04    1.0095491375556602E-03
           8.2355304833878586E-04    4.6265598281090424E-04    1.0873683440556442E-03
           1.0554542732409931E-03    1.4711843503882099E-03   -1.9257994645430107E-04
          -5.9301436633897922E-04    1.4338243179723433E-03   -1.0518598720437020E-03
           1.7009542630618498E-04   -2.7229621441976677E-04   -1.8275874435505542E-04
          -3.9794180044257839E-04    1.1377334676033351E-03    1.5111872074917462E-04
          -2.1010779022382305E-04    2.5908254733804446E-04    1.2965840740884172E-03
           5.7014687400899560E-04    4.3663748724869248E-04   -1.4622705923756523E-04
           2.7451658005841074E-04   -1.1055104188319235E-04   -2.7011911348235945E-04
          -1.5488517944070518E-03   -4.8268639177606240E-04    1.0661735520055189E-03
           1.1223093816475148E-04    6.1336181168487902E-04   -2.4337739021739247E-04
          -8.4642821007886282E-04    2.7314900746551267E-04    4.4966165018171615E-04
          -9.0281864256947886E-04    4.6471968390340618E-04   -2.6632644265804151E-04
          -1.1909602595455520E-03    3.2546725754643147E-05   -5.5177771602067684E-05
           2.6878284875873280E-04   -1.1019214431522808E-03    6.7804196598134970E-04
           3.1926309385834869E-04    1.0177813137420965E-03   -3.0847823992984460E-04
          -4.2284471691405294E-04    4.3959034011525802E-04   -8.2960000475837143E-04
           4.5763012011691343E-04   -7.2873611066439487E-04   -1.9810871951751581E-04
          -2.5435809606593222E-04   -2.9857092395961038E-04    4.0812967127753033E-04
          -1.7369381693221203E-04    6.5701533353923404E-04    1.2674523034107406E-03
           2.5615963334041104E-04   -1.0911306516854342E-06    1.1679000472830791E-03
          -1.6308109927887235E-05    1.3149337651637259E-03    1.0407917755218426E-03
           8.9763869706296841E-04   -3.3652501423925442E-04    5.8254652408820261E-04
           1.0486726918866388E-03    1.4387708624006714E-04   -1.3227328925032183E-03
          -7.1280006661915071E-04    3.7576614694219510E-04   -7.8229807966923416E-04
          -4.9597517558356699E-05    2.0943390428465978E-05   -3.3577883357129625E-04