 # Version information for this restart file 
 # current date 2023-07-21 11:19:51.317
 # current working dir /mnt/lustre/indy2lfs/work/tc047/tc047/mrnuff-cirrus/cp2k
 # Program compiled at                              Thu Jun 30 12:29:55 BST 2022
 # Program compiled on                                             cirrus-login3
 # Program compiled for                                             Cirrus-intel
 # Source code revision number                                       git:e635599
 &GLOBAL
   PRINT_LEVEL  LOW
   PROJECT_NAME H2O-64
   RUN_TYPE  MD
 &END GLOBAL
 &MOTION
   &MD
     ENSEMBLE  NVE
     STEPS  10
     TIMESTEP     4.9999999999999994E-01
     STEP_START_VAL  10
     TIME_START_VAL     4.9999999999999982E+00
     ECONS_START_VAL    -1.1007588181099993E+03
     TEMPERATURE     3.0000000000000000E+02
     &AVERAGES  T
       &RESTART_AVERAGES
         ITIMES_START  1
         AVECPU     6.7675345395226030E+00
         AVEHUGONIOT     0.0000000000000000E+00
         AVETEMP_BARO     0.0000000000000000E+00
         AVEPOT    -1.1010668160173027E+03
         AVEKIN     3.0070034549337338E-01
         AVETEMP     3.3142598856008220E+02
         AVEKIN_QM     0.0000000000000000E+00
         AVETEMP_QM     0.0000000000000000E+00
         AVEVOL     1.2909542132085598E+04
         AVECELL_A     2.3458682268415796E+01
         AVECELL_B     2.3458682268415796E+01
         AVECELL_C     2.3458682268415796E+01
         AVEALPHA     9.0000000000000000E+01
         AVEBETA     9.0000000000000000E+01
         AVEGAMMA     9.0000000000000000E+01
         AVE_ECONS    -1.0896372862998053E+01
         AVE_PRESS     0.0000000000000000E+00
         AVE_PXX     0.0000000000000000E+00
       &END RESTART_AVERAGES
     &END AVERAGES
   &END MD
 &END MOTION
 &FORCE_EVAL
   METHOD  QS
   &DFT
     BASIS_SET_FILE_NAME GTH_BASIS_SETS
     POTENTIAL_FILE_NAME POTENTIAL
     &SCF
       SCF_GUESS  ATOMIC
       &OT  T
         MINIMIZER  DIIS
       &END OT
       &PRINT
         &RESTART  OFF
         &END RESTART
       &END PRINT
     &END SCF
     &QS
       EPS_DEFAULT     9.9999999999999998E-13
       EXTRAPOLATION  PS
       EXTRAPOLATION_ORDER  3
     &END QS
     &MGRID
       CUTOFF     2.8000000000000000E+02
       REL_CUTOFF     3.0000000000000000E+01
     &END MGRID
     &XC
       DENSITY_CUTOFF     1.0000000000000000E-10
       GRADIENT_CUTOFF     1.0000000000000000E-10
       TAU_CUTOFF     1.0000000000000000E-10
       &XC_FUNCTIONAL  NO_SHORTCUT
         &PADE  T
         &END PADE
       &END XC_FUNCTIONAL
     &END XC
   &END DFT
   &SUBSYS
     &CELL
       A     1.2413800000000002E+01    0.0000000000000000E+00    0.0000000000000000E+00
       B     0.0000000000000000E+00    1.2413800000000002E+01    0.0000000000000000E+00
       C     0.0000000000000000E+00    0.0000000000000000E+00    1.2413800000000002E+01
       MULTIPLE_UNIT_CELL  1 1 1
     &END CELL
     &COORD
O    1.2265692089484146E+01    1.3554390129941671E+00    1.0875425741210444E+01
O    6.4523125712781217E+00    3.7059030017230530E+00    8.6472703373291111E+00
O    7.7679434805511191E-02    2.1684363409617675E+00    8.2608499727947962E+00
O    1.2086328917682172E+01    2.6383236471456883E+00    2.1708319631148152E+00
O    1.2290563434792578E+01    4.1705987030844422E+00    1.2102197401500970E+01
O    7.2035546534507882E+00    9.4146440982927093E-01    4.7596753308529633E+00
O    8.3332259924711138E+00    7.2077559238209119E+00    4.6827252174468965E+00
O    1.2331820354972926E+01    1.1521085584601169E+01    8.0815267568454345E+00
O    3.2742305248728378E+00    4.4591006237002242E+00    9.1745323461746526E+00
O    2.8601657947012691E+00    3.7871321994318610E+00    6.5410904120533697E+00
O    1.3797135980522002E+00    6.3917883108529789E+00    5.6509499049332013E-01
O    1.8717778176467339E+00    8.6859327223321721E+00    2.0908475002934135E+00
O    3.7724126920716259E+00    1.2107291686118609E+01    8.6205990988999766E+00
O    6.4253612010426382E+00    3.6667844669336467E+00    2.7875787966085812E+00
O    1.9996801569167393E+00    1.8525818618606198E+00    4.8671305057774745E+00
O    8.2870264289442694E+00    2.4221945186201341E+00    6.9417301194041192E+00
O    5.7524965525743390E+00    3.3354063225406567E+00    1.2486444073906760E+01
O    1.1313041873264160E+01    5.6568394091370209E+00    2.2481538681310118E+00
O    4.2889086332745299E+00    2.1146774663677461E+00    1.0586400462686871E+01
O    5.3988008779579335E+00    3.3584215761666614E+00    5.4859980676065971E+00
O    6.5093803283315310E+00    1.1870555907452625E+01    7.1448610258287404E-01
O    3.2525927590518267E+00    2.3434818290721111E+00    2.4132514479860130E+00
O    8.0086796499285313E+00    6.3565335203087434E+00    7.4977752039610994E+00
O    5.9288585788256425E+00    6.5082801666042842E+00    1.2195796701642493E+01
O    1.0610385294795700E+01    1.1861264429738396E+01    1.2200574174939973E+01
O    9.3403690756569073E+00    3.6890996107165086E+00    3.5273423653475873E+00
O    1.1111278086578573E+00    5.7890355206451423E+00    6.6473009501981632E+00
O    8.0194995343335016E+00    3.3269739508473104E+00    1.0869758841489833E+01
O    1.2376084676796278E+01    9.6748049821030317E+00    1.1772442429127571E+01
O    4.2098962719503321E+00    7.0914037241391439E+00    8.1403049780540542E+00
O    3.7839656891275055E+00    8.2290488153630594E+00    1.1585038748792668E+01
O    1.1076296436002840E+01    4.5429033328725374E+00    7.8327522122956745E+00
O    1.0435269965490452E+01    8.4217711221835305E+00    1.0328413587522740E+00
O    1.9828015281273776E+00    6.4005825276165371E+00    1.0353823655978495E+01
O    4.7041682767468407E+00    5.6227133611208091E-01    5.6097237226911298E+00
O    8.7178718108892905E+00    1.2242115811187334E+01    8.0976567639232151E+00
O    2.6327341025094682E+00    1.0520521873272623E+01    8.2905623926721544E-02
O    7.2399931187465958E+00    1.0511642196931637E+01    4.2432664330029830E+00
O    2.2807064781618922E+00    2.7612056427324888E-01    1.0807250569989238E+01
O    8.8632061138829137E+00    9.4642072500213581E-01    1.3400856795972547E+00
O    1.9443088048744324E+00    8.0893935868695284E+00    7.5355059867712297E+00
O    9.6598248299587546E+00    8.0355046451627103E+00    9.8565400345211511E+00
O    1.0903669851584416E+01    8.3307153998976542E+00    6.4773146916028459E+00
O    3.5124567442237482E+00    4.8693650210822454E+00    1.5451764009708009E+00
O    7.9775830453592098E+00    8.6026723333304034E+00    1.2050849513770604E+01
O    8.3694035479504318E+00    1.0019371052442843E+01    6.6836141760227035E+00
O    5.6546743218579198E+00    6.0810664230945530E+00    5.5283846573827748E+00
O    1.1742547847645376E+01    1.6241840639034066E+00    5.0859575162073911E+00
O    9.7585719615142512E+00    9.8110347715520572E+00    3.5364867774940967E+00
O    3.9627876574399679E+00    1.0548914651573940E+01    4.6848634346389817E+00
O    9.0110847254975968E-01    6.3699180308684742E+00    4.0614677068442653E+00
O    6.8825857356121869E+00    6.4084220847944673E+00    2.5046902581441275E+00
O    3.8180799995398842E+00    6.6391276583281327E+00    3.7786506828596695E+00
O    6.5639457974900406E+00    8.3081696931558913E+00    8.8142644496198006E+00
O    9.7792965800926286E+00    1.3440562766329306E-01    3.8518038249084698E+00
O    4.1040770115656944E+00    1.1645978558721454E+01    2.2167390496174404E+00
O    5.3225394392113445E+00    8.7370879819812490E+00    2.7520568939069392E+00
O    1.0008064086737155E+01    5.3735087324373128E+00    5.3757728940149745E+00
O    1.2260297782908777E+01    8.6464340629360201E+00    3.9709777917870777E+00
O    2.3431345497116980E+00    1.0747243885368617E+01    6.8128217267253888E+00
O    7.0016612916654228E+00    6.6240597665991086E-01    1.0534341561687938E+01
O    5.1725047982212358E+00    1.0218495319125212E+01    1.0357205957141177E+01
O    1.1186316801594311E+01    5.8851524495734679E+00    1.0299193203865993E+01
O    1.2277001782589704E+01    8.9569716794262764E+00    9.0707884188586991E+00
H    1.2357840653883960E+01    2.3335995753227738E+00    1.1187202568866033E+01
H    1.1946181003855164E+01    1.5338243304135337E+00    9.8820686313884778E+00
H    5.5871540557010348E+00    3.4492983737413376E+00    9.0442905792560726E+00
H    6.8930493554873333E+00    3.0239782285787040E+00    7.9852283560210662E+00
H   -1.4374297116955501E-01    1.5098214846056359E+00    7.5263531243336690E+00
H   -3.8865416711600159E-01    3.0530974755008167E+00    7.9298823362658748E+00
H    1.2176354233154608E+01    2.9746344065069592E+00    1.1924463434417190E+00
H    1.2991627169715017E+01    2.9143170210551572E+00    2.5155346727349799E+00
H    1.1517585159653596E+01    4.3255122446515095E+00    1.1434691026735551E+01
H    1.2784953658522545E+01    5.0635466714142394E+00    1.2040055000814910E+01
H    6.9671401310538172E+00    1.7387343976988245E+00    4.1849967664920680E+00
H    6.2296009063342108E+00    6.8946782722628919E-01    5.1579113656943258E+00
H    7.7273594948728288E+00    7.2216808380982425E+00    5.4888761780282334E+00
H    9.1691701765456468E+00    6.6296086344973055E+00    4.9460727574874275E+00
H    1.2846883768257261E+01    1.1781070688350955E+01    8.9005192602382710E+00
H    1.1983330930255498E+01    1.0563456761596019E+01    8.3168613221539669E+00
H    3.5249173108191587E+00    3.8402074967255508E+00    9.9510006399906974E+00
H    2.4297337650179389E+00    4.9330989925198949E+00    9.5245628999127909E+00
H    2.1731627523294197E+00    4.5583640086437631E+00    6.3013579985290891E+00
H    2.8563500932216255E+00    3.8576048156122975E+00    7.5841394106043323E+00
H    1.1402120515025931E+00    7.1967347480538741E+00    1.1594244541632202E+00
H    2.2451038169246553E+00    6.0044688738679808E+00    1.0028737587416690E+00
H    2.8159635337996254E+00    8.9701748198773874E+00    2.2995199891603599E+00
H    1.3289544665070752E+00    8.9939926467759559E+00    2.8983257079449682E+00
H    4.4550218369062016E+00    1.1540339425004063E+01    9.1644203320317477E+00
H    3.0505860859909610E+00    1.2474023132570455E+01    9.2862357274708334E+00
H    5.8591510063948000E+00    3.4580809397753653E+00    3.6616773633302890E+00
H    5.8328342793248629E+00    3.4003555439699467E+00    1.9823495664215696E+00
H    9.5573469725981763E-01    1.6451477306438713E+00    4.8407733836332492E+00
H    2.2282991647309207E+00    2.4813299829874191E+00    5.6872650230026469E+00
H    8.4431290012365547E+00    1.6050270153557535E+00    7.5442513472479309E+00
H    8.0660702671741156E+00    2.0137128293840187E+00    6.0338191030228003E+00
H    5.2179579256216417E+00    2.8944435585811097E+00    1.1676379626020056E+01
H    6.6808372388706871E+00    3.4137338960717840E+00    1.1974227321955173E+01
H    1.0787628803145271E+01    6.5181395670623461E+00    2.0987991922624247E+00
H    1.1679773573100782E+01    5.3602522151472227E+00    1.3423877172507728E+00
H    3.4353203684189788E+00    1.5422281194349949E+00    1.0899348788954612E+01
H    4.8360131199378111E+00    1.4266306188294982E+00    1.0089887937303633E+01
H    4.3860802582005798E+00    3.3639520802572251E+00    5.6883523933788949E+00
H    5.6851424648151498E+00    4.3694414775812067E+00    5.5473743673643892E+00
H    6.2905172776223663E+00    1.1824099733750666E+01    1.7188529435632813E+00
H    5.6254822935025688E+00    1.2118652077616357E+01    3.2827489265271975E-01
H    3.5448338646071407E+00    1.3905272139795497E+00    2.1815170599098419E+00
H    2.6082617908446557E+00    2.2011793682000076E+00    3.2448585926829483E+00
H    7.1214310944135164E+00    5.8746986475784917E+00    7.5240902705277906E+00
H    8.6555160452203772E+00    5.7349833608735032E+00    7.0296645633644710E+00
H    6.0004465275667922E+00    5.6511979030146664E+00    1.1673025686979569E+01
H    6.2576534574147331E+00    6.3249880564331384E+00    1.3168261180251829E+01
H    1.1110393485507680E+01    1.2636559250997472E+01    1.1695509562619199E+01
H    1.0264574453193578E+01    1.2297166054266825E+01    1.3044673119310051E+01
H    9.9063257583759903E+00    4.0523254539292326E+00    2.7328096710813288E+00
H    8.5320976562309490E+00    3.4662435851509694E+00    2.9418258347991753E+00
H    1.4549325922351686E+00    6.6684406032661228E+00    7.1063381287429461E+00
H    1.0013233336704894E+00    6.1758231958594063E+00    5.6553319488926785E+00
H    7.9834584102617043E+00    3.6965662970353557E+00    9.9295362401113962E+00
H    8.0702893407911471E+00    2.3148727995366021E+00    1.0750118168091014E+01
H    1.1741851247337422E+01    1.0457041172522393E+01    1.2099135806994104E+01
H    1.2145140467197660E+01    8.9346530857757802E+00    1.2412210742862047E+01
H    3.3373535314760954E+00    7.6121200308658734E+00    7.8531045761945162E+00
H    3.8438071109326009E+00    6.2417161568839328E+00    8.6114175129824417E+00
H    3.1132077807648000E+00    7.6196920981173673E+00    1.1070308623799587E+01
H    4.4752997918980579E+00    7.6309327249729240E+00    1.2076616644959055E+01
H    1.1595109347939799E+01    4.9846383472193052E+00    7.0588447442731397E+00
H    1.0300198428128462E+01    4.1359917521746628E+00    7.3179795841163573E+00
H    1.0066803629044973E+01    8.9449101926887327E+00    1.8648409458423685E+00
H    9.5721275817988936E+00    8.2654871620117412E+00    4.9820470823270169E-01
H    1.3188214514380909E+00    6.6901027276286378E+00    9.6503048603173429E+00
H    1.4021624816959586E+00    6.4512365186862421E+00    1.1227722789147247E+01
H    4.1225373888740933E+00    1.3301382656578542E+00    5.2661059713499920E+00
H    4.6863100279908725E+00    6.4323888153894393E-01    6.6181558656211976E+00
H    9.4703533710560546E+00    1.2334177792060329E+01    8.7409520154269096E+00
H    8.8486737260992161E+00    1.1353175343936616E+01    7.5414016813710836E+00
H    1.7346635260612264E+00    1.0023247752457378E+01    1.4531246290797153E-01
H    3.3374323737187237E+00    9.8445600332822316E+00   -2.3573946363400292E-01
H    7.0505799823405155E+00    1.1506005604268216E+01    4.1255571139611034E+00
H    6.4716019298293608E+00    9.9354966266940608E+00    3.7910911532793121E+00
H    1.3268589592366813E+00    5.8377393430256685E-01    1.1128929736798737E+01
H    2.5223619020799890E+00   -5.4513600115402805E-01    1.1460522258350922E+01
H    8.7695024945573277E+00    1.8730405160136243E+00    9.9029984538946236E-01
H    8.0908940305268011E+00    3.3984351975184718E-01    9.9164117999986245E-01
H    1.1203607709237271E+00    8.3716512006958848E+00    8.1792323344822684E+00
H    2.0883187077772747E+00    8.9941496096240403E+00    7.0138877035401030E+00
H    8.9092455661177201E+00    7.7938840102046711E+00    9.2222118549471155E+00
H    9.0650442925877375E+00    8.4492400512122021E+00    1.0614283870982058E+01
H    1.0125293357176526E+01    7.6972294325251509E+00    6.4507709233870933E+00
H    1.0499855152536096E+01    9.1992705817143623E+00    6.1555311709841831E+00
H    3.4971231604229649E+00    3.9586904012078756E+00    2.1122844778209982E+00
H    4.0584146620662791E+00    4.5845739999390451E+00    7.4299547661116705E-01
H    7.3547300979714825E+00    9.3907717765821062E+00    1.2034662471093920E+01
H    7.3341917810682968E+00    7.7711469163733486E+00    1.2054219542749710E+01
H    7.8271815569079779E+00    1.0161811172290388E+01    5.7814619639484945E+00
H    7.7120113817880007E+00    9.5092512996371408E+00    7.2843726304681429E+00
H    5.2899463871864612E+00    6.4889429596069927E+00    6.3929757321024043E+00
H    4.8678252868832201E+00    6.3175211180852022E+00    4.8313586361442260E+00
H    1.1521862541305904E+01    2.1923283626802008E+00    4.2496614328176321E+00
H    1.1222791846957852E+01    7.8414795598393916E-01    4.7829538343864870E+00
H    8.8119942350204887E+00    9.6778779613703136E+00    3.9666686831526241E+00
H    9.9342844970884840E+00    1.0814156988789973E+01    3.7816372858611285E+00
H    3.1082289528957046E+00    1.0546326407174144E+01    5.2868803913856288E+00
H    4.3132584907107168E+00    1.1455620653057631E+01    5.0610780320735529E+00
H    4.2220406784292847E-01    7.3045102192445768E+00    3.8013135649931247E+00
H    2.9772343931244388E-01    5.7724401932037406E+00    3.4526995513601393E+00
H    7.5860591209736148E+00    6.5678847601542092E+00    3.2915836809338219E+00
H    6.6758385347279354E+00    5.3831754309178761E+00    2.5200133494028409E+00
H    3.8532534172197694E+00    6.3060046348696739E+00    2.8123783749705371E+00
H    2.7953246440736694E+00    6.5485847389776852E+00    3.9537741358610754E+00
H    5.5553176437610112E+00    8.0120599991635082E+00    8.6583941104706170E+00
H    6.9993930795495141E+00    7.4780238970674660E+00    8.4104344163933416E+00
H    9.5571588990614238E+00    7.3280446145754019E-01    3.0174818797267648E+00
H    8.9237164310789137E+00    1.3437510586298593E-01    4.4076447871973539E+00
H    3.8482457315694307E+00    1.1174438455170311E+01    1.3441470566656215E+00
H    3.9626056228594218E+00    1.0964278466896689E+01    3.0102551897942100E+00
H    5.9449661422364786E+00    7.8891857853083991E+00    2.7995741535960224E+00
H    4.7652120121286767E+00    8.7229381074886199E+00    3.5906717261645635E+00
H    1.0905815782848871E+01    5.5302201800699047E+00    4.9342869455826746E+00
H    9.5033245323303195E+00    4.6732708376731509E+00    4.7171193166485770E+00
H    1.1491942104116553E+01    9.0018887406794565E+00    3.3983649908374676E+00
H    1.1959903629041587E+01    8.7851547644289347E+00    4.9401026898666434E+00
H    2.9404439844273806E+00    1.1333326721639006E+01    7.4881123877730573E+00
H    1.3993518978820072E+00    1.1120275827042912E+01    6.8063456551222536E+00
H    7.2181951384372658E+00    1.2809608485381749E-01    9.7032371258678243E+00
H    7.1648660378585376E+00    1.0772078745183196E-01    1.1367500988399996E+01
H    4.8113412051058999E+00    9.3237474535606246E+00    1.0837702423611933E+01
H    6.0816481698036657E+00    9.8060697913094987E+00    1.0186927365163870E+01
H    1.0565212262639502E+01    6.7306908548566557E+00    1.0314443980527512E+01
H    1.1239043366237455E+01    5.5938377372089034E+00    9.3143651163975303E+00
H    1.2188456954751373E+01    8.9927460848963783E+00    1.0127821223536259E+01
H    1.1415764242459572E+01    8.6329965781003004E+00    8.6365688433565513E+00
     &END COORD
     &VELOCITY
           2.4353373553277576E-04   -1.2006097602618210E-04    8.6380096427539018E-05
           5.1311970177151334E-05   -1.2708266189112630E-06   -1.4048482610438072E-05
          -1.3298767757323834E-04   -8.3910828184793275E-05   -1.7227772179785847E-04
           3.2311111387122387E-04   -2.8974228281160942E-04    2.2815855771173420E-04
           3.6807112799844104E-04   -1.6540691871842612E-04    8.2168021720786075E-05
           8.6843810079106126E-05   -1.6733145785180505E-04    2.3233906169734306E-04
          -1.9144732815441220E-04    3.6490306372560972E-05    1.7692428816761018E-04
          -2.7339212137004646E-04   -2.0181330326118964E-06   -2.5185283188687286E-04
          -2.9114797156632041E-04    1.4202524657050698E-04   -9.4207613534832722E-05
           4.9604684383403886E-05    1.9764986075575063E-04   -3.9675655900681474E-05
          -1.0338266296092335E-04    2.5533554886962188E-04   -1.7753567723230955E-04
           1.2393271803086016E-04   -5.1522817961830219E-05    2.4869105054745218E-04
           3.7171385612094299E-05    1.3912087635299336E-04   -2.6001104941708125E-04
          -9.0584380441225261E-05   -5.4256969622676181E-05    1.3571849163625374E-04
          -1.3532069033396758E-05    2.9312535024550386E-04   -1.1035216194777906E-04
           3.4365663856445063E-04    1.2592891247427667E-04    1.2984947778326477E-04
           3.1061310688774437E-05   -2.1491061234655447E-04    1.3642911352187916E-04
          -1.1197980598573828E-04    8.8708519143511279E-05    8.1551359031136654E-05
           7.2553977152111688E-05   -7.4882564047046678E-05   -3.7593240427942364E-05
          -3.9311008768715385E-05    7.7794970775763386E-05   -4.9503853884048677E-05
           1.3050850736188253E-04    3.2997372841371298E-05    2.3384938882153368E-04
          -2.3506710107425348E-04   -1.3038351983278110E-04   -7.8872779759822710E-05
           2.2656471395926509E-04    3.8984618341643204E-06   -1.0674489559806997E-04
          -4.8910812396752454E-04   -8.8250996373449327E-05    4.1168871692940997E-05
          -2.3516505104305999E-04    3.0141522872962845E-05   -4.3307021530644615E-05
           2.3874077440336599E-04    1.6479626533189631E-04   -6.5961174412844967E-06
           2.1570400440215272E-06   -3.6687604474086257E-04    1.9056449024076515E-05
           1.5263290745892895E-04   -4.5423683353527534E-05   -4.7828240981166686E-05
          -2.4361660474244258E-04   -1.5799538490247122E-04    1.4701044899588425E-04
          -4.6332302281130678E-05    6.6958418739698831E-05   -1.4093723621049815E-04
           7.0402526347708224E-05    1.4787938508551270E-04    2.3294646136704685E-04
          -1.0541845847219695E-04    9.0959878372442416E-05    1.4239486316679702E-04
           3.9447066267618135E-04    6.7697585284299337E-05    1.1078543439915671E-04
          -7.7642050403991717E-05   -1.2536442818054084E-04   -1.9896428319782209E-04
           4.0834731830598800E-04    1.4767279245058793E-04    2.0697580191204164E-05
          -2.3059415805112382E-04   -1.2069261926319696E-04    1.1528847271949361E-04
          -2.2453224222964685E-04    3.2508315209541427E-04   -1.1011175869251025E-04
          -2.5223464560716588E-05    3.9102949516729723E-04    1.6353834116166529E-04
           2.2717843314215036E-05   -6.2765751653462482E-06    4.4671040027865706E-05
          -2.2749659830957096E-04   -6.9576305492585533E-06    6.3788388337786251E-05
          -7.5841302719144627E-05    8.7087799014033907E-05   -2.6939094015323352E-04
          -1.5166914071795915E-04   -1.6482446184563093E-04   -8.8619423399615362E-05
           8.3255811681773567E-06   -5.3065384630783835E-05   -7.5044278374721408E-05
           6.6403553282535423E-05    1.1865592146590629E-04   -1.6876922794158676E-04
          -3.6854176965776803E-04   -4.4916679521518057E-04   -7.2212204722618068E-05
          -1.2514834926215056E-04   -2.1658705550807819E-04    1.4279407554030398E-05
           1.5301292386813285E-04    7.8212466736138293E-05   -2.6042789655674272E-04
           1.1597437780987385E-04    1.3153166326554614E-04    1.9714489347097197E-05
          -2.7586288467881645E-05    4.9135802992736672E-05   -8.2847135186359789E-05
           1.7533037836801646E-04   -1.0200057778771237E-04   -1.5955910869501013E-05
           9.1305293487240194E-06   -1.7063363096567747E-04   -1.2704533408511664E-04
           2.0532414019964852E-04   -1.8523108331172536E-04    1.5576953260090852E-04
          -9.5082342049001233E-05    3.8898283928676792E-04    6.8143354601056961E-05
          -3.3468517684113559E-05    1.1413973594258853E-04    4.8372670608844379E-05
          -3.2167308794228423E-04   -6.7373694362987701E-05   -3.3440505798321016E-04
          -1.0565699375523369E-04   -1.8612919959299496E-04   -4.1185047195330373E-05
           3.0227443463987503E-04   -1.9476822779216498E-08   -4.0898192669164667E-05
           3.4132859750884943E-04   -7.5666618758793420E-05    3.1369871723571646E-04
           4.8774504476498494E-06    9.5432986768272701E-05    4.0463993791500700E-05
          -7.3525642131525644E-05   -1.1023344657363400E-04   -1.6990266178312202E-04
          -9.5305467321337806E-05    1.5924492797652032E-04    1.0050784054986241E-04
           2.9577992716508204E-04   -2.0302338272590567E-04   -3.8000268562274428E-06
           3.3426751497744514E-05    2.9960856876741831E-05    2.2957098674438057E-05
           2.1247046209614382E-04   -1.8773508816328447E-04   -7.1323934921959235E-05
          -4.5158839414115266E-04   -3.6143060083390285E-05   -6.1976176342099160E-04
           9.6706711087745441E-04   -4.1494673938759073E-04   -1.4270244721822610E-03
           7.4657709737696099E-04    7.4979183340153656E-04   -2.9716006615682772E-05
           1.1944835029830594E-03   -2.4887952170453572E-04   -4.6965328169819385E-04
           3.3415678177665047E-04   -4.4057529884257787E-04   -4.5347033641886551E-04
           1.1012796130052788E-03    2.9083917953187134E-04   -1.2194190254881177E-03
           2.2415342342995488E-04    1.5937251548180172E-03   -3.7781211910552237E-04
           1.0073465758338111E-03   -6.8157982680671953E-04    2.6183752025851602E-04
          -6.9769183567758774E-05    2.4841597098958217E-05   -1.3349984293650405E-04
          -6.5395783738081404E-04   -1.1729839036758917E-04    1.7209949834976122E-04
          -6.3912725033854489E-04   -9.4833908161794512E-04   -2.5753189732054802E-04
          -3.9187509730045824E-04   -2.4417797176750342E-04   -5.0822500047896014E-04
           2.8904185309652861E-04   -2.0455475311572202E-03   -7.4488003306984944E-04
           3.8533435936775103E-04   -1.5649598638752290E-03   -8.1999331590968413E-04
           6.6163782210222947E-04   -2.0530137991866220E-04   -4.7022778537392424E-04
          -4.8571775200851000E-05   -1.4283455067260053E-03    8.4970777265150062E-04
          -5.1040502071102493E-04    9.0124041076529134E-04   -4.3717828655560301E-04
           2.7962496774645255E-04    1.1112791910028092E-04   -5.6980553870667014E-04
          -1.5080494509685078E-03    7.3672779722363819E-04   -5.7541529118042034E-06
           2.4475429621386970E-04    9.7437756643171871E-04   -4.8339679943837106E-04
          -8.5981680086786232E-05    5.9512037269506706E-04   -4.8949501756663665E-05
          -6.8266467564031012E-04   -5.5567223334343626E-04    7.1350489602860451E-04
           4.8033714482406404E-05    6.5011279410725868E-04   -7.7943973950047251E-04
           8.0491911120136422E-05   -7.8343749755225190E-04    7.2435736497350760E-04
           2.5839724569607270E-04    7.5578985206014522E-05   -5.8507007759385358E-04
           3.2468632066930001E-04   -2.7324024725746505E-04    2.5249479693640540E-04
          -1.0539062839334972E-03    5.0616494373369322E-04    7.1049452486339417E-04
           8.0541579377613030E-04   -1.4428395473880531E-04   -9.1111624630082501E-04
          -9.3901405526151146E-05   -1.7440336409862590E-04   -6.6695306718830448E-04
          -5.9667439631154180E-04    2.1020879938539404E-03   -1.6524975841523327E-04
          -5.9413689339127447E-04   -1.8314218672518882E-04   -3.0878549942682049E-04
          -1.1299139621602335E-04   -1.9706794254724800E-04    5.4164798336604932E-04
           3.7379192865409671E-04   -2.2187500988826055E-04   -3.6215118742714917E-04
          -5.2111287106966899E-04    8.9091209793192678E-04   -5.6207250899923886E-04
           6.7919292602985134E-04    1.3343181456757262E-04   -5.4958333089519392E-04
          -5.0955912342069327E-05   -7.8811310901268105E-04    5.3306738435826562E-04
          -8.4615276360225789E-05   -4.3969810880546863E-04   -1.5061331385191141E-03
           1.9621493945367008E-04    7.0658921103932770E-04    7.9834173947910831E-04
          -3.1086266728891896E-04    7.4710976671145271E-04    4.9983161017433419E-04
          -7.7088036735521780E-04    8.7923123996731529E-04    4.4906439901505819E-04
           4.7843808738258259E-04    2.0885304148261978E-04    9.9081078439814448E-04
           2.7383478091950032E-04   -1.2076470154018935E-05    2.0312636572849163E-03
           2.2238602224534620E-04    4.5732113704380188E-04    2.0297495633777056E-03
          -1.3983314820114099E-04    6.4110517559094944E-04    2.3541721874438326E-04
           1.0634351964476151E-03   -8.1406755448363741E-04    2.5592615930983834E-04
           5.5764666823368298E-04   -2.4944020396908904E-04    1.0095491375849181E-03
           8.2355304836177962E-04    4.6265598282942653E-04    1.0873683440570619E-03
           1.0554542732510838E-03    1.4711843503832965E-03   -1.9257994643480489E-04
          -5.9301436637551781E-04    1.4338243179395755E-03   -1.0518598720259179E-03
           1.7009542630880983E-04   -2.7229621441456206E-04   -1.8275874433125192E-04
          -3.9794180045847047E-04    1.1377334676056609E-03    1.5111872074922162E-04
          -2.1010779018943381E-04    2.5908254733823544E-04    1.2965840741210113E-03
           5.7014687397993042E-04    4.3663748723852972E-04   -1.4622705924580197E-04
           2.7451658005741907E-04   -1.1055104188254381E-04   -2.7011911347550740E-04
          -1.5488517943867495E-03   -4.8268639176613865E-04    1.0661735519832448E-03
           1.1223093818020944E-04    6.1336181166405518E-04   -2.4337739021264889E-04
          -8.4642821009502274E-04    2.7314900747627278E-04    4.4966165017676097E-04
          -9.0281864258827242E-04    4.6471968391354103E-04   -2.6632644267434125E-04
          -1.1909602595111875E-03    3.2546725719833413E-05   -5.5177771584582661E-05
           2.6878284878179915E-04   -1.1019214430929350E-03    6.7804196597226712E-04
           3.1926309390873785E-04    1.0177813137741032E-03   -3.0847823993074579E-04
          -4.2284471692002960E-04    4.3959034012299732E-04   -8.2960000477142490E-04
           4.5763012014723954E-04   -7.2873611065171469E-04   -1.9810871956351081E-04
          -2.5435809608309015E-04   -2.9857092394883021E-04    4.0812967128811409E-04
          -1.7369381695374163E-04    6.5701533357859850E-04    1.2674523034591854E-03
           2.5615963330769535E-04   -1.0911306598157240E-06    1.1679000472528804E-03
          -1.6308109797371845E-05    1.3149337650955174E-03    1.0407917757003782E-03
           8.9763869715218003E-04   -3.3652501427131347E-04    5.8254652395083235E-04
           1.0486726919082072E-03    1.4387708621809453E-04   -1.3227328924890452E-03
          -7.1280006662331633E-04    3.7576614693176421E-04   -7.8229807968425167E-04
          -4.9597517516448199E-05    2.0943390444962405E-05   -3.3577883353793855E-04