 # Version information for this restart file 
 # current date 2023-07-21 11:32:01.036
 # current working dir /mnt/lustre/indy2lfs/work/tc047/tc047/mrnuff-cirrus/cp2k
 # Program compiled at                              Thu Jun 30 12:29:55 BST 2022
 # Program compiled on                                             cirrus-login3
 # Program compiled for                                             Cirrus-intel
 # Source code revision number                                       git:e635599
 &GLOBAL
   PRINT_LEVEL  LOW
   PROJECT_NAME H2O-64
   RUN_TYPE  MD
 &END GLOBAL
 &MOTION
   &MD
     ENSEMBLE  NVE
     STEPS  10
     TIMESTEP     4.9999999999999994E-01
     STEP_START_VAL  10
     TIME_START_VAL     4.9999999999999982E+00
     ECONS_START_VAL    -1.1007588181104504E+03
     TEMPERATURE     3.0000000000000000E+02
     &AVERAGES  T
       &RESTART_AVERAGES
         ITIMES_START  1
         AVECPU     6.8929279265576042E+00
         AVEHUGONIOT     0.0000000000000000E+00
         AVETEMP_BARO     0.0000000000000000E+00
         AVEPOT    -1.1010668160173034E+03
         AVEKIN     3.0070034549302227E-01
         AVETEMP     3.3142598855969538E+02
         AVEKIN_QM     0.0000000000000000E+00
         AVETEMP_QM     0.0000000000000000E+00
         AVEVOL     1.2909542132085598E+04
         AVECELL_A     2.3458682268415796E+01
         AVECELL_B     2.3458682268415796E+01
         AVECELL_C     2.3458682268415796E+01
         AVEALPHA     9.0000000000000000E+01
         AVEBETA     9.0000000000000000E+01
         AVEGAMMA     9.0000000000000000E+01
         AVE_ECONS    -1.0896372197213367E+01
         AVE_PRESS     0.0000000000000000E+00
         AVE_PXX     0.0000000000000000E+00
       &END RESTART_AVERAGES
     &END AVERAGES
   &END MD
 &END MOTION
 &FORCE_EVAL
   METHOD  QS
   &DFT
     BASIS_SET_FILE_NAME GTH_BASIS_SETS
     POTENTIAL_FILE_NAME POTENTIAL
     &SCF
       SCF_GUESS  ATOMIC
       &OT  T
         MINIMIZER  DIIS
       &END OT
       &PRINT
         &RESTART  OFF
         &END RESTART
       &END PRINT
     &END SCF
     &QS
       EPS_DEFAULT     9.9999999999999998E-13
       EXTRAPOLATION  PS
       EXTRAPOLATION_ORDER  3
     &END QS
     &MGRID
       CUTOFF     2.8000000000000000E+02
       REL_CUTOFF     3.0000000000000000E+01
     &END MGRID
     &XC
       DENSITY_CUTOFF     1.0000000000000000E-10
       GRADIENT_CUTOFF     1.0000000000000000E-10
       TAU_CUTOFF     1.0000000000000000E-10
       &XC_FUNCTIONAL  NO_SHORTCUT
         &PADE  T
         &END PADE
       &END XC_FUNCTIONAL
     &END XC
   &END DFT
   &SUBSYS
     &CELL
       A     1.2413800000000002E+01    0.0000000000000000E+00    0.0000000000000000E+00
       B     0.0000000000000000E+00    1.2413800000000002E+01    0.0000000000000000E+00
       C     0.0000000000000000E+00    0.0000000000000000E+00    1.2413800000000002E+01
       MULTIPLE_UNIT_CELL  1 1 1
     &END CELL
     &COORD
O    1.2265692089483926E+01    1.3554390129941836E+00    1.0875425741210423E+01
O    6.4523125712781990E+00    3.7059030017227510E+00    8.6472703373293012E+00
O    7.7679434805434364E-02    2.1684363409614393E+00    8.2608499727950750E+00
O    1.2086328917682424E+01    2.6383236471455334E+00    2.1708319631147872E+00
O    1.2290563434792658E+01    4.1705987030843534E+00    1.2102197401500336E+01
O    7.2035546534508228E+00    9.4146440982949153E-01    4.7596753308531010E+00
O    8.3332259924707976E+00    7.2077559238205406E+00    4.6827252174467775E+00
O    1.2331820354972859E+01    1.1521085584601403E+01    8.0815267568454630E+00
O    3.2742305248729329E+00    4.4591006237005653E+00    9.1745323461748640E+00
O    2.8601657947010244E+00    3.7871321994319476E+00    6.5410904120532471E+00
O    1.3797135980521462E+00    6.3917883108528404E+00    5.6509499049344836E-01
O    1.8717778176469881E+00    8.6859327223313976E+00    2.0908475002936000E+00
O    3.7724126920717160E+00    1.2107291686118616E+01    8.6205990989002466E+00
O    6.4253612010428061E+00    3.6667844669334135E+00    2.7875787966085870E+00
O    1.9996801569167726E+00    1.8525818618604968E+00    4.8671305057775589E+00
O    8.2870264289443512E+00    2.4221945186202345E+00    6.9417301194039176E+00
O    5.7524965525743905E+00    3.3354063225407748E+00    1.2486444073906823E+01
O    1.1313041873263836E+01    5.6568394091370875E+00    2.2481538681309785E+00
O    4.2889086332742794E+00    2.1146774663677115E+00    1.0586400462686404E+01
O    5.3988008779580028E+00    3.3584215761666303E+00    5.4859980676068378E+00
O    6.5093803283318286E+00    1.1870555907453200E+01    7.1448610258284995E-01
O    3.2525927590515642E+00    2.3434818290721182E+00    2.4132514479857430E+00
O    8.0086796499285260E+00    6.3565335203084370E+00    7.4977752039616279E+00
O    5.9288585788259507E+00    6.5082801666043677E+00    1.2195796701642221E+01
O    1.0610385294795519E+01    1.1861264429738512E+01    1.2200574174939899E+01
O    9.3403690756567190E+00    3.6890996107164868E+00    3.5273423653474851E+00
O    1.1111278086577518E+00    5.7890355206449744E+00    6.6473009501981544E+00
O    8.0194995343338160E+00    3.3269739508474609E+00    1.0869758841489638E+01
O    1.2376084676796054E+01    9.6748049821028221E+00    1.1772442429127036E+01
O    4.2098962719503046E+00    7.0914037241393775E+00    8.1403049780540151E+00
O    3.7839656891278186E+00    8.2290488153627575E+00    1.1585038748792154E+01
O    1.1076296436002599E+01    4.5429033328728163E+00    7.8327522122959792E+00
O    1.0435269965490470E+01    8.4217711221834879E+00    1.0328413587523582E+00
O    1.9828015281269413E+00    6.4005825276161188E+00    1.0353823655978568E+01
O    4.7041682767469419E+00    5.6227133611207714E-01    5.6097237226911947E+00
O    8.7178718108893865E+00    1.2242115811187512E+01    8.0976567639231032E+00
O    2.6327341025095636E+00    1.0520521873272976E+01    8.2905623926675956E-02
O    7.2399931187464830E+00    1.0511642196931652E+01    4.2432664330032628E+00
O    2.2807064781620929E+00    2.7612056427361087E-01    1.0807250569989419E+01
O    8.8632061138830185E+00    9.4642072500199981E-01    1.3400856795967326E+00
O    1.9443088048745143E+00    8.0893935868696545E+00    7.5355059867712102E+00
O    9.6598248299588541E+00    8.0355046451624776E+00    9.8565400345208278E+00
O    1.0903669851584310E+01    8.3307153998974695E+00    6.4773146916030493E+00
O    3.5124567442238002E+00    4.8693650210823352E+00    1.5451764009707880E+00
O    7.9775830453593013E+00    8.6026723333305064E+00    1.2050849513769746E+01
O    8.3694035479504709E+00    1.0019371052443152E+01    6.6836141760229815E+00
O    5.6546743218573985E+00    6.0810664230942484E+00    5.5283846573827082E+00
O    1.1742547847645474E+01    1.6241840639034471E+00    5.0859575162073032E+00
O    9.7585719615141162E+00    9.8110347715519630E+00    3.5364867774940536E+00
O    3.9627876574400505E+00    1.0548914651573535E+01    4.6848634346390128E+00
O    9.0110847254960580E-01    6.3699180308685852E+00    4.0614677068442582E+00
O    6.8825857356122278E+00    6.4084220847943936E+00    2.5046902581440356E+00
O    3.8180799995397874E+00    6.6391276583279382E+00    3.7786506828598578E+00
O    6.5639457974898896E+00    8.3081696931559215E+00    8.8142644496196105E+00
O    9.7792965800926375E+00    1.3440562766334629E-01    3.8518038249084707E+00
O    4.1040770115659742E+00    1.1645978558721096E+01    2.2167390496172779E+00
O    5.3225394392111092E+00    8.7370879819810998E+00    2.7520568939068788E+00
O    1.0008064086737193E+01    5.3735087324373456E+00    5.3757728940148830E+00
O    1.2260297782908811E+01    8.6464340629357288E+00    3.9709777917873414E+00
O    2.3431345497116527E+00    1.0747243885368825E+01    6.8128217267251072E+00
O    7.0016612916653509E+00    6.6240597665992851E-01    1.0534341561687805E+01
O    5.1725047982213379E+00    1.0218495319125266E+01    1.0357205957141325E+01
O    1.1186316801594643E+01    5.8851524495733685E+00    1.0299193203865869E+01
O    1.2277001782589711E+01    8.9569716794258536E+00    9.0707884188587062E+00
H    1.2357840653884686E+01    2.3335995753219314E+00    1.1187202568867837E+01
H    1.1946181003856099E+01    1.5338243304148245E+00    9.8820686313880817E+00
H    5.5871540556989352E+00    3.4492983737434360E+00    9.0442905792528219E+00
H    6.8930493554922636E+00    3.0239782285801953E+00    7.9852283560222297E+00
H   -1.4374297116747611E-01    1.5098214846081865E+00    7.5263531243296224E+00
H   -3.8865416711486572E-01    3.0530974755003135E+00    7.9298823362631738E+00
H    1.2176354233151216E+01    2.9746344065131129E+00    1.1924463434424497E+00
H    1.2991627169715708E+01    2.9143170210542091E+00    2.5155346727349510E+00
H    1.1517585159650302E+01    4.3255122446519128E+00    1.1434691026736230E+01
H    1.2784953658522381E+01    5.0635466714151516E+00    1.2040055000825348E+01
H    6.9671401310509840E+00    1.7387343976958511E+00    4.1849967664885979E+00
H    6.2296009063344435E+00    6.8946782722719935E-01    5.1579113656959343E+00
H    7.7273594948736477E+00    7.2216808381012143E+00    5.4888761780282298E+00
H    9.1691701765487004E+00    6.6296086345008263E+00    4.9460727574884924E+00
H    1.2846883768257282E+01    1.1781070688347121E+01    8.9005192602402019E+00
H    1.1983330930253400E+01    1.0563456761596361E+01    8.3168613221521692E+00
H    3.5249173108183194E+00    3.8402074967242625E+00    9.9510006399901663E+00
H    2.4297337650181752E+00    4.9330989925192075E+00    9.5245628999140397E+00
H    2.1731627523323906E+00    4.5583640086461088E+00    6.3013579985286770E+00
H    2.8563500932202635E+00    3.8576048156100713E+00    7.5841394106041164E+00
H    1.1402120515027228E+00    7.1967347480520321E+00    1.1594244541646224E+00
H    2.2451038169260018E+00    6.0044688738687144E+00    1.0028737587392795E+00
H    2.8159635337986431E+00    8.9701748198835762E+00    2.2995199891604390E+00
H    1.3289544665053910E+00    8.9939926467804856E+00    2.8983257079419733E+00
H    4.4550218369063028E+00    1.1540339425003642E+01    9.1644203320316731E+00
H    3.0505860859903171E+00    1.2474023132571848E+01    9.2862357274689025E+00
H    5.8591510063954004E+00    3.4580809397753476E+00    3.6616773633307220E+00
H    5.8328342793241328E+00    3.4003555439713580E+00    1.9823495664217610E+00
H    9.5573469725947879E-01    1.6451477306433568E+00    4.8407733836347324E+00
H    2.2282991647298553E+00    2.4813299829900033E+00    5.6872650230012978E+00
H    8.4431290012355724E+00    1.6050270153563375E+00    7.5442513472489425E+00
H    8.0660702671722326E+00    2.0137128293820261E+00    6.0338191030235144E+00
H    5.2179579256212199E+00    2.8944435585786574E+00    1.1676379626021545E+01
H    6.6808372388708204E+00    3.4137338960725438E+00    1.1974227321955013E+01
H    1.0787628803147538E+01    6.5181395670643578E+00    2.0987991922638312E+00
H    1.1679773573102059E+01    5.3602522151476553E+00    1.3423877172515359E+00
H    3.4353203684204003E+00    1.5422281194348550E+00    1.0899348788959264E+01
H    4.8360131199370668E+00    1.4266306188278322E+00    1.0089887937304411E+01
H    4.3860802582002458E+00    3.3639520802574072E+00    5.6883523933752587E+00
H    5.6851424648159643E+00    4.3694414775811703E+00    5.5473743673656770E+00
H    6.2905172776232883E+00    1.1824099733744392E+01    1.7188529435634003E+00
H    5.6254822935016771E+00    1.2118652077612868E+01    3.2827489265274234E-01
H    3.5448338646091009E+00    1.3905272139786391E+00    2.1815170599118781E+00
H    2.6082617908454853E+00    2.2011793681994849E+00    3.2448585926838631E+00
H    7.1214310944122570E+00    5.8746986475798648E+00    7.5240902705220254E+00
H    8.6555160452211197E+00    5.7349833608772434E+00    7.0296645633609440E+00
H    6.0004465275630761E+00    5.6511979030138697E+00    1.1673025686980663E+01
H    6.2576534574133813E+00    6.3249880564334644E+00    1.3168261180251918E+01
H    1.1110393485510214E+01    1.2636559250997465E+01    1.1695509562619884E+01
H    1.0264574453193147E+01    1.2297166054267105E+01    1.3044673119309774E+01
H    9.9063257583780135E+00    4.0523254539283275E+00    2.7328096710829515E+00
H    8.5320976562310591E+00    3.4662435851516360E+00    2.9418258347986561E+00
H    1.4549325922395435E+00    6.6684406032649362E+00    7.1063381287416245E+00
H    1.0013233336713299E+00    6.1758231958589196E+00    5.6553319488926999E+00
H    7.9834584102593560E+00    3.6965662970361834E+00    9.9295362401110392E+00
H    8.0702893407891754E+00    2.3148727995363751E+00    1.0750118168091129E+01
H    1.1741851247338673E+01    1.0457041172522667E+01    1.2099135806995411E+01
H    1.2145140467201555E+01    8.9346530857763788E+00    1.2412210742864056E+01
H    3.3373535314762117E+00    7.6121200308664356E+00    7.8531045761945757E+00
H    3.8438071109316327E+00    6.2417161568820223E+00    8.6114175129801787E+00
H    3.1132077807614866E+00    7.6196920981179641E+00    1.1070308623804294E+01
H    4.4752997918970605E+00    7.6309327249731771E+00    1.2076616644960730E+01
H    1.1595109347938743E+01    4.9846383472197946E+00    7.0588447442741069E+00
H    1.0300198428131107E+01    4.1359917521728526E+00    7.3179795841139930E+00
H    1.0066803629045202E+01    8.9449101926872299E+00    1.8648409458416937E+00
H    9.5721275817973286E+00    8.2654871620122599E+00    4.9820470823419932E-01
H    1.3188214514408156E+00    6.6901027276311380E+00    9.6503048603151065E+00
H    1.4021624816991689E+00    6.4512365186906013E+00    1.1227722789148594E+01
H    4.1225373888737042E+00    1.3301382656576417E+00    5.2661059713495790E+00
H    4.6863100279913850E+00    6.4323888154129527E-01    6.6181558656210555E+00
H    9.4703533710556371E+00    1.2334177792058345E+01    8.7409520154266005E+00
H    8.8486737260975907E+00    1.1353175343934819E+01    7.5414016813731379E+00
H    1.7346635260626035E+00    1.0023247752454358E+01    1.4531246290973859E-01
H    3.3374323737187082E+00    9.8445600332828551E+00   -2.3573946363650569E-01
H    7.0505799823414996E+00    1.1506005604268340E+01    4.1255571139587630E+00
H    6.4716019298311620E+00    9.9354966266934799E+00    3.7910911532758296E+00
H    1.3268589592353419E+00    5.8377393429623770E-01    1.1128929736800361E+01
H    2.5223619020802457E+00   -5.4513600115616023E-01    1.1460522258348341E+01
H    8.7695024945574769E+00    1.8730405160143964E+00    9.9029984538942184E-01
H    8.0908940305243959E+00    3.3984351975130883E-01    9.9164118000679458E-01
H    1.1203607709253021E+00    8.3716512006968546E+00    8.1792323344824442E+00
H    2.0883187077757359E+00    8.9941496096231184E+00    7.0138877035382929E+00
H    8.9092455661158034E+00    7.7938840102113804E+00    9.2222118549494212E+00
H    9.0650442925889489E+00    8.4492400512116568E+00    1.0614283870982778E+01
H    1.0125293357173495E+01    7.6972294325285455E+00    6.4507709233849635E+00
H    1.0499855152541121E+01    9.1992705817148561E+00    6.1555311709788585E+00
H    3.4971231604222912E+00    3.9586904012078854E+00    2.1122844778205172E+00
H    4.0584146620670456E+00    4.5845739999384607E+00    7.4299547661188781E-01
H    7.3547300979707071E+00    9.3907717765814560E+00    1.2034662471099274E+01
H    7.3341917810683519E+00    7.7711469163742262E+00    1.2054219542754074E+01
H    7.8271815569076022E+00    1.0161811172290106E+01    5.7814619639484439E+00
H    7.7120113817893028E+00    9.5092512996358902E+00    7.2843726304681296E+00
H    5.2899463871905610E+00    6.4889429596095818E+00    6.3929757321027383E+00
H    4.8678252868845462E+00    6.3175211180869697E+00    4.8313586361427507E+00
H    1.1521862541305850E+01    2.1923283626799268E+00    4.2496614328179012E+00
H    1.1222791846958723E+01    7.8414795598342724E-01    4.7829538343864186E+00
H    8.8119942350227802E+00    9.6778779613700561E+00    3.9666686831550768E+00
H    9.9342844970868907E+00    1.0814156988791767E+01    3.7816372858594982E+00
H    3.1082289528957503E+00    1.0546326407174648E+01    5.2868803913862585E+00
H    4.3132584907102220E+00    1.1455620653058196E+01    5.0610780320723201E+00
H    4.2220406784294906E-01    7.3045102192447855E+00    3.8013135649946270E+00
H    2.9772343931232714E-01    5.7724401932043019E+00    3.4526995513586587E+00
H    7.5860591209720107E+00    6.5678847601552812E+00    3.2915836809348464E+00
H    6.6758385347288041E+00    5.3831754309175395E+00    2.5200133494029782E+00
H    3.8532534172203241E+00    6.3060046348705345E+00    2.8123783749708062E+00
H    2.7953246440734603E+00    6.5485847389787066E+00    3.9537741358609737E+00
H    5.5553176437610707E+00    8.0120599991621617E+00    8.6583941104739850E+00
H    6.9993930795505523E+00    7.4780238970677955E+00    8.4104344163922082E+00
H    9.5571588990617329E+00    7.3280446145779976E-01    3.0174818797266094E+00
H    8.9237164310793773E+00    1.3437510586045937E-01    4.4076447871977935E+00
H    3.8482457315654366E+00    1.1174438455171570E+01    1.3441470566656399E+00
H    3.9626056228561684E+00    1.0964278466898438E+01    3.0102551897950960E+00
H    5.9449661422374547E+00    7.8891857853094161E+00    2.7995741535954588E+00
H    4.7652120121315376E+00    8.7229381074895844E+00    3.5906717261668213E+00
H    1.0905815782848013E+01    5.5302201800700850E+00    4.9342869455825538E+00
H    9.5033245323314279E+00    4.6732708376729279E+00    4.7171193166482670E+00
H    1.1491942104117305E+01    9.0018887406779591E+00    3.3983649908355691E+00
H    1.1959903629037283E+01    8.7851547644300645E+00    4.9401026898651867E+00
H    2.9404439844276165E+00    1.1333326721637844E+01    7.4881123877728886E+00
H    1.3993518978819870E+00    1.1120275827042807E+01    6.8063456551225601E+00
H    7.2181951384392136E+00    1.2809608485267460E-01    9.7032371258686929E+00
H    7.1648660378597349E+00    1.0772078745105448E-01    1.1367500988399499E+01
H    4.8113412051048963E+00    9.3237474535611113E+00    1.0837702423612043E+01
H    6.0816481698037261E+00    9.8060697913099517E+00    1.0186927365163493E+01
H    1.0565212262637473E+01    6.7306908548545099E+00    1.0314443980528782E+01
H    1.1239043366237180E+01    5.5938377372084380E+00    9.3143651163968837E+00
H    1.2188456954752455E+01    8.9927460848987000E+00    1.0127821223537417E+01
H    1.1415764242456744E+01    8.6329965781041427E+00    8.6365688433581180E+00
     &END COORD
     &VELOCITY
           2.4353373553201300E-04   -1.2006097602768248E-04    8.6380096427852787E-05
           5.1311970178152873E-05   -1.2708266223233531E-06   -1.4048482607289996E-05
          -1.3298767757254705E-04   -8.3910828188119282E-05   -1.7227772179502089E-04
           3.2311111387310886E-04   -2.8974228281325877E-04    2.2815855771195827E-04
           3.6807112800187947E-04   -1.6540691872717487E-04    8.2168021723996303E-05
           8.6843810076231892E-05   -1.6733145784875340E-04    2.3233906169799277E-04
          -1.9144732815952627E-04    3.6490306370295240E-05    1.7692428816167699E-04
          -2.7339212137226067E-04   -2.0181330296653025E-06   -2.5185283188761039E-04
          -2.9114797156353883E-04    1.4202524657137459E-04   -9.4207613532055023E-05
           4.9604684381625977E-05    1.9764986075670202E-04   -3.9675655903476472E-05
          -1.0338266296020700E-04    2.5533554886885985E-04   -1.7753567723017720E-04
           1.2393271803274678E-04   -5.1522817968688279E-05    2.4869105054649320E-04
           3.7171385613053357E-05    1.3912087635252420E-04   -2.6001104941830825E-04
          -9.0584380438638300E-05   -5.4256969625855976E-05    1.3571849163620424E-04
          -1.3532069034114146E-05    2.9312535024535999E-04   -1.1035216194559168E-04
           3.4365663856324023E-04    1.2592891247698628E-04    1.2984947778168639E-04
           3.1061310688724455E-05   -2.1491061234555289E-04    1.3642911352314320E-04
          -1.1197980599006297E-04    8.8708519146272241E-05    8.1551359029702418E-05
           7.2553977149180805E-05   -7.4882564048799034E-05   -3.7593240431326802E-05
          -3.9311008769413252E-05    7.7794970772168023E-05   -4.9503853882522920E-05
           1.3050850736708126E-04    3.2997372846235991E-05    2.3384938882020553E-04
          -2.3506710107586447E-04   -1.3038351983589997E-04   -7.8872779762950281E-05
           2.2656471396224488E-04    3.8984618354805808E-06   -1.0674489559525520E-04
          -4.8910812396470139E-04   -8.8250996371312337E-05    4.1168871691939574E-05
          -2.3516505104659072E-04    3.0141522872055056E-05   -4.3307021528418056E-05
           2.3874077440312795E-04    1.6479626533235045E-04   -6.5961174415355877E-06
           2.1570400438283804E-06   -3.6687604474426757E-04    1.9056449024730164E-05
           1.5263290746243100E-04   -4.5423683351586399E-05   -4.7828240983698352E-05
          -2.4361660474204414E-04   -1.5799538490413035E-04    1.4701044898940115E-04
          -4.6332302278772721E-05    6.6958418743503121E-05   -1.4093723621283428E-04
           7.0402526351382938E-05    1.4787938508695767E-04    2.3294646136392573E-04
          -1.0541845847322367E-04    9.0959878376355152E-05    1.4239486316532443E-04
           3.9447066267196131E-04    6.7697585284143673E-05    1.1078543440198959E-04
          -7.7642050391954037E-05   -1.2536442818852881E-04   -1.9896428319597173E-04
           4.0834731830828027E-04    1.4767279244974385E-04    2.0697580191213122E-05
          -2.3059415804795730E-04   -1.2069261926325286E-04    1.1528847271899813E-04
          -2.2453224222768235E-04    3.2508315210000110E-04   -1.1011175869328138E-04
          -2.5223464560819188E-05    3.9102949516707134E-04    1.6353834116479611E-04
           2.2717843315988967E-05   -6.2765751649929177E-06    4.4671040031562009E-05
          -2.2749659830491748E-04   -6.9576305526349570E-06    6.3788388336612710E-05
          -7.5841302716334145E-05    8.7087799010890222E-05   -2.6939094015332725E-04
          -1.5166914072434697E-04   -1.6482446184678788E-04   -8.8619423405318523E-05
           8.3255811683951695E-06   -5.3065384633806550E-05   -7.5044278373286833E-05
           6.6403553283635495E-05    1.1865592146676882E-04   -1.6876922794241856E-04
          -3.6854176965517635E-04   -4.4916679521125836E-04   -7.2212204729472598E-05
          -1.2514834926149692E-04   -2.1658705550571311E-04    1.4279407558522448E-05
           1.5301292386339481E-04    7.8212466733842373E-05   -2.6042789655767373E-04
           1.1597437781260002E-04    1.3153166326661727E-04    1.9714489345988370E-05
          -2.7586288470626468E-05    4.9135802995011165E-05   -8.2847135185649270E-05
           1.7533037837042998E-04   -1.0200057779245387E-04   -1.5955910871763661E-05
           9.1305293478017361E-06   -1.7063363096662601E-04   -1.2704533408519067E-04
           2.0532414020113128E-04   -1.8523108330971566E-04    1.5576953260058415E-04
          -9.5082342049380040E-05    3.8898283928687054E-04    6.8143354605027065E-05
          -3.3468517684317254E-05    1.1413973594325522E-04    4.8372670606523183E-05
          -3.2167308794124952E-04   -6.7373694363409808E-05   -3.3440505798340499E-04
          -1.0565699375335022E-04   -1.8612919959682707E-04   -4.1185047197392905E-05
           3.0227443463847023E-04   -1.9476821966704378E-08   -4.0898192671130895E-05
           3.4132859751240447E-04   -7.5666618758219999E-05    3.1369871723427317E-04
           4.8774504458741168E-06    9.5432986765572807E-05    4.0463993790611471E-05
          -7.3525642130757500E-05   -1.1023344657261680E-04   -1.6990266178677462E-04
          -9.5305467322293720E-05    1.5924492797733664E-04    1.0050784054647230E-04
           2.9577992716620300E-04   -2.0302338272290622E-04   -3.8000268560873029E-06
           3.3426751502796212E-05    2.9960856873916661E-05    2.2957098675480415E-05
           2.1247046209891857E-04   -1.8773508816475047E-04   -7.1323934923050864E-05
          -4.5158839413106654E-04   -3.6143060074585642E-05   -6.1976176340292738E-04
           9.6706711087312606E-04   -4.1494673937311874E-04   -1.4270244722145893E-03
           7.4657709739497371E-04    7.4979183342174750E-04   -2.9716006668184110E-05
           1.1944835030041944E-03   -2.4887952168806734E-04   -4.6965328167496574E-04
           3.3415678179185630E-04   -4.4057529885949132E-04   -4.5347033647064018E-04
           1.1012796129981654E-03    2.9083917957304652E-04   -1.2194190255008059E-03
           2.2415342340732119E-04    1.5937251548757817E-03   -3.7781211911436967E-04
           1.0073465758550931E-03   -6.8157982681162966E-04    2.6183752026194833E-04
          -6.9769183695642372E-05    2.4841597136992585E-05   -1.3349984303691781E-04
          -6.5395783732905542E-04   -1.1729839025841472E-04    1.7209949841175864E-04
          -6.3912725034957459E-04   -9.4833908166261274E-04   -2.5753189732990675E-04
          -3.9187509728265141E-04   -2.4417797176125500E-04   -5.0822500047400989E-04
           2.8904185305653245E-04   -2.0455475311241741E-03   -7.4488003300746271E-04
           3.8533435945484347E-04   -1.5649598638903485E-03   -8.1999331588128248E-04
           6.6163782211097518E-04   -2.0530137994021519E-04   -4.7022778534512312E-04
          -4.8571775226289134E-05   -1.4283455067403367E-03    8.4970777263498767E-04
          -5.1040502071997382E-04    9.0124041076456644E-04   -4.3717828657199582E-04
           2.7962496772316101E-04    1.1112791910791251E-04   -5.6980553868940585E-04
          -1.5080494509516272E-03    7.3672779724064498E-04   -5.7541529104699571E-06
           2.4475429619745309E-04    9.7437756641803586E-04   -4.8339679941755990E-04
          -8.5981680079599504E-05    5.9512037265739613E-04   -4.8949501756945625E-05
          -6.8266467564948572E-04   -5.5567223333179518E-04    7.1350489601004795E-04
           4.8033714512551358E-05    6.5011279416384341E-04   -7.7943973949667347E-04
           8.0491911077497800E-05   -7.8343749750521031E-04    7.2435736498466870E-04
           2.5839724572506286E-04    7.5578985176754914E-05   -5.8507007756410914E-04
           3.2468632063243160E-04   -2.7324024722791154E-04    2.5249479695607408E-04
          -1.0539062839300974E-03    5.0616494373439817E-04    7.1049452486959819E-04
           8.0541579377083170E-04   -1.4428395472777870E-04   -9.1111624630138186E-04
          -9.3901405517089303E-05   -1.7440336410185148E-04   -6.6695306718370128E-04
          -5.9667439631888835E-04    2.1020879938654551E-03   -1.6524975844146541E-04
          -5.9413689338700640E-04   -1.8314218674021272E-04   -3.0878549939466994E-04
          -1.1299139624252504E-04   -1.9706794257154281E-04    5.4164798332636773E-04
           3.7379192865922260E-04   -2.2187500989954973E-04   -3.6215118741792217E-04
          -5.2111287106153942E-04    8.9091209793908783E-04   -5.6207250901125865E-04
           6.7919292607443763E-04    1.3343181453559822E-04   -5.4958333088944711E-04
          -5.0955912351572271E-05   -7.8811310899245765E-04    5.3306738439670850E-04
          -8.4615276344094108E-05   -4.3969810880076037E-04   -1.5061331384940756E-03
           1.9621493944018304E-04    7.0658921103910035E-04    7.9834173949266669E-04
          -3.1086266728275560E-04    7.4710976671238795E-04    4.9983161014694323E-04
          -7.7088036733836366E-04    8.7923124001107391E-04    4.4906439902845708E-04
           4.7843808737485732E-04    2.0885304142601000E-04    9.9081078442787678E-04
           2.7383478089417851E-04   -1.2076470179165009E-05    2.0312636572795239E-03
           2.2238602225067196E-04    4.5732113707696003E-04    2.0297495634045665E-03
          -1.3983314819627382E-04    6.4110517558983065E-04    2.3541721875021778E-04
           1.0634351963809097E-03   -8.1406755450073442E-04    2.5592615926344511E-04
           5.5764666825207777E-04   -2.4944020394910204E-04    1.0095491375512245E-03
           8.2355304833749816E-04    4.6265598280583381E-04    1.0873683440537031E-03
           1.0554542732364399E-03    1.4711843503887145E-03   -1.9257994645837878E-04
          -5.9301436633136129E-04    1.4338243179759800E-03   -1.0518598720447065E-03
           1.7009542631047910E-04   -2.7229621442243060E-04   -1.8275874435570255E-04
          -3.9794180044684478E-04    1.1377334675983810E-03    1.5111872075607242E-04
          -2.1010779022271006E-04    2.5908254733783738E-04    1.2965840740871556E-03
           5.7014687401184868E-04    4.3663748725096470E-04   -1.4622705923633878E-04
           2.7451658005648818E-04   -1.1055104188336232E-04   -2.7011911348959742E-04
          -1.5488517944066173E-03   -4.8268639177515032E-04    1.0661735520051281E-03
           1.1223093816487504E-04    6.1336181168488921E-04   -2.4337739021715451E-04
          -8.4642821008099197E-04    2.7314900747071538E-04    4.4966165018175161E-04
          -9.0281864256635451E-04    4.6471968389928231E-04   -2.6632644265222981E-04
          -1.1909602595388371E-03    3.2546725750685226E-05   -5.5177771599833699E-05
           2.6878284875842006E-04   -1.1019214431555741E-03    6.7804196597825842E-04
           3.1926309385865519E-04    1.0177813137406528E-03   -3.0847823992504462E-04
          -4.2284471691670809E-04    4.3959034011405976E-04   -8.2960000475656211E-04
           4.5763012011411103E-04   -7.2873611066895665E-04   -1.9810871950886984E-04
          -2.5435809606219584E-04   -2.9857092396313014E-04    4.0812967127578812E-04
          -1.7369381693286428E-04    6.5701533354404671E-04    1.2674523034143890E-03
           2.5615963333155864E-04   -1.0911306500531814E-06    1.1679000472784276E-03
          -1.6308109926651705E-05    1.3149337651648448E-03    1.0407917755199782E-03
           8.9763869706679998E-04   -3.3652501423898354E-04    5.8254652407947380E-04
           1.0486726918837663E-03    1.4387708624154897E-04   -1.3227328925056786E-03
          -7.1280006661821787E-04    3.7576614694503322E-04   -7.8229807966526501E-04
          -4.9597517560053652E-05    2.0943390429249219E-05   -3.3577883357474038E-04