 # Version information for this restart file 
 # current date 2023-07-21 11:49:41.810
 # current working dir /mnt/lustre/indy2lfs/work/tc047/tc047/mrnuff-cirrus/cp2k
 # Program compiled at                              Thu Jun 30 12:29:55 BST 2022
 # Program compiled on                                             cirrus-login3
 # Program compiled for                                             Cirrus-intel
 # Source code revision number                                       git:e635599
 &GLOBAL
   PRINT_LEVEL  LOW
   PROJECT_NAME H2O-64
   RUN_TYPE  MD
 &END GLOBAL
 &MOTION
   &MD
     ENSEMBLE  NVE
     STEPS  10
     TIMESTEP     4.9999999999999994E-01
     STEP_START_VAL  10
     TIME_START_VAL     4.9999999999999982E+00
     ECONS_START_VAL    -1.1007588181103933E+03
     TEMPERATURE     3.0000000000000000E+02
     &AVERAGES  T
       &RESTART_AVERAGES
         ITIMES_START  1
         AVECPU     4.4278131908387879E+00
         AVEHUGONIOT     0.0000000000000000E+00
         AVETEMP_BARO     0.0000000000000000E+00
         AVEPOT    -1.1010668160173034E+03
         AVEKIN     3.0070034549316543E-01
         AVETEMP     3.3142598855985318E+02
         AVEKIN_QM     0.0000000000000000E+00
         AVETEMP_QM     0.0000000000000000E+00
         AVEVOL     1.2909542132085598E+04
         AVECELL_A     2.3458682268415796E+01
         AVECELL_B     2.3458682268415796E+01
         AVECELL_C     2.3458682268415796E+01
         AVEALPHA     9.0000000000000000E+01
         AVEBETA     9.0000000000000000E+01
         AVEGAMMA     9.0000000000000000E+01
         AVE_ECONS    -1.0896372281053473E+01
         AVE_PRESS     0.0000000000000000E+00
         AVE_PXX     0.0000000000000000E+00
       &END RESTART_AVERAGES
     &END AVERAGES
   &END MD
 &END MOTION
 &FORCE_EVAL
   METHOD  QS
   &DFT
     BASIS_SET_FILE_NAME GTH_BASIS_SETS
     POTENTIAL_FILE_NAME POTENTIAL
     &SCF
       SCF_GUESS  ATOMIC
       &OT  T
         MINIMIZER  DIIS
       &END OT
       &PRINT
         &RESTART  OFF
         &END RESTART
       &END PRINT
     &END SCF
     &QS
       EPS_DEFAULT     9.9999999999999998E-13
       EXTRAPOLATION  PS
       EXTRAPOLATION_ORDER  3
     &END QS
     &MGRID
       CUTOFF     2.8000000000000000E+02
       REL_CUTOFF     3.0000000000000000E+01
     &END MGRID
     &XC
       DENSITY_CUTOFF     1.0000000000000000E-10
       GRADIENT_CUTOFF     1.0000000000000000E-10
       TAU_CUTOFF     1.0000000000000000E-10
       &XC_FUNCTIONAL  NO_SHORTCUT
         &PADE  T
         &END PADE
       &END XC_FUNCTIONAL
     &END XC
   &END DFT
   &SUBSYS
     &CELL
       A     1.2413800000000002E+01    0.0000000000000000E+00    0.0000000000000000E+00
       B     0.0000000000000000E+00    1.2413800000000002E+01    0.0000000000000000E+00
       C     0.0000000000000000E+00    0.0000000000000000E+00    1.2413800000000002E+01
       MULTIPLE_UNIT_CELL  1 1 1
     &END CELL
     &COORD
O    1.2265692089483927E+01    1.3554390129941627E+00    1.0875425741210465E+01
O    6.4523125712782106E+00    3.7059030017228265E+00    8.6472703373292905E+00
O    7.7679434805437347E-02    2.1684363409616179E+00    8.2608499727948548E+00
O    1.2086328917682366E+01    2.6383236471456040E+00    2.1708319631148356E+00
O    1.2290563434792492E+01    4.1705987030843863E+00    1.2102197401500613E+01
O    7.2035546534508814E+00    9.4146440982939683E-01    4.7596753308530353E+00
O    8.3332259924710836E+00    7.2077559238208861E+00    4.6827252174467828E+00
O    1.2331820354972869E+01    1.1521085584601169E+01    8.0815267568454736E+00
O    3.2742305248729249E+00    4.4591006237004143E+00    9.1745323461748782E+00
O    2.8601657947010528E+00    3.7871321994318596E+00    6.5410904120532853E+00
O    1.3797135980521802E+00    6.3917883108529550E+00    5.6509499049342771E-01
O    1.8717778176468689E+00    8.6859327223317475E+00    2.0908475002935392E+00
O    3.7724126920715859E+00    1.2107291686118629E+01    8.6205990989002128E+00
O    6.4253612010427492E+00    3.6667844669334770E+00    2.7875787966085701E+00
O    1.9996801569167402E+00    1.8525818618605689E+00    4.8671305057776308E+00
O    8.2870264289442641E+00    2.4221945186201759E+00    6.9417301194041485E+00
O    5.7524965525744198E+00    3.3354063225406891E+00    1.2486444073906773E+01
O    1.1313041873263911E+01    5.6568394091370431E+00    2.2481538681309718E+00
O    4.2889086332743869E+00    2.1146774663677244E+00    1.0586400462686649E+01
O    5.3988008779579113E+00    3.3584215761666023E+00    5.4859980676066229E+00
O    6.5093803283316900E+00    1.1870555907452742E+01    7.1448610258283118E-01
O    3.2525927590516415E+00    2.3434818290721369E+00    2.4132514479858242E+00
O    8.0086796499284141E+00    6.3565335203086910E+00    7.4977752039614254E+00
O    5.9288585788258201E+00    6.5082801666043730E+00    1.2195796701642383E+01
O    1.0610385294795584E+01    1.1861264429738572E+01    1.2200574174939849E+01
O    9.3403690756569091E+00    3.6890996107164060E+00    3.5273423653475513E+00
O    1.1111278086577767E+00    5.7890355206450890E+00    6.6473009501981615E+00
O    8.0194995343336792E+00    3.3269739508473863E+00    1.0869758841489682E+01
O    1.2376084676796202E+01    9.6748049821029021E+00    1.1772442429127425E+01
O    4.2098962719504227E+00    7.0914037241392176E+00    8.1403049780540737E+00
O    3.7839656891276312E+00    8.2290488153629830E+00    1.1585038748792394E+01
O    1.1076296436002712E+01    4.5429033328726991E+00    7.8327522122959250E+00
O    1.0435269965490539E+01    8.4217711221836602E+00    1.0328413587523424E+00
O    1.9828015281271136E+00    6.4005825276162627E+00    1.0353823655978482E+01
O    4.7041682767468807E+00    5.6227133611203828E-01    5.6097237226912018E+00
O    8.7178718108893314E+00    1.2242115811187373E+01    8.0976567639231636E+00
O    2.6327341025095343E+00    1.0520521873272887E+01    8.2905623926717423E-02
O    7.2399931187465381E+00    1.0511642196931748E+01    4.2432664330031953E+00
O    2.2807064781619992E+00    2.7612056427348297E-01    1.0807250569989256E+01
O    8.8632061138828941E+00    9.4642072500208252E-01    1.3400856795969394E+00
O    1.9443088048744146E+00    8.0893935868696563E+00    7.5355059867712226E+00
O    9.6598248299589020E+00    8.0355046451626357E+00    9.8565400345209220E+00
O    1.0903669851584247E+01    8.3307153998975085E+00    6.4773146916028344E+00
O    3.5124567442237606E+00    4.8693650210822588E+00    1.5451764009707807E+00
O    7.9775830453592178E+00    8.6026723333305544E+00    1.2050849513770062E+01
O    8.3694035479504603E+00    1.0019371052443073E+01    6.6836141760228776E+00
O    5.6546743218576241E+00    6.0810664230943958E+00    5.5283846573827731E+00
O    1.1742547847645353E+01    1.6241840639034411E+00    5.0859575162072872E+00
O    9.7585719615142690E+00    9.8110347715519346E+00    3.5364867774941313E+00
O    3.9627876574400220E+00    1.0548914651573721E+01    4.6848634346389693E+00
O    9.0110847254964455E-01    6.3699180308686989E+00    4.0614677068442377E+00
O    6.8825857356121762E+00    6.4084220847945090E+00    2.5046902581440036E+00
O    3.8180799995397843E+00    6.6391276583279994E+00    3.7786506828598094E+00
O    6.5639457974899482E+00    8.3081696931559392E+00    8.8142644496195626E+00
O    9.7792965800926517E+00    1.3440562766332884E-01    3.8518038249084676E+00
O    4.1040770115658320E+00    1.1645978558721357E+01    2.2167390496173232E+00
O    5.3225394392112451E+00    8.7370879819812686E+00    2.7520568939068708E+00
O    1.0008064086737116E+01    5.3735087324373065E+00    5.3757728940149372E+00
O    1.2260297782908713E+01    8.6464340629359207E+00    3.9709777917872366E+00
O    2.3431345497116767E+00    1.0747243885368743E+01    6.8128217267251578E+00
O    7.0016612916653980E+00    6.6240597665992162E-01    1.0534341561687876E+01
O    5.1725047982212891E+00    1.0218495319125164E+01    1.0357205957141437E+01
O    1.1186316801594462E+01    5.8851524495734457E+00    1.0299193203865904E+01
O    1.2277001782589767E+01    8.9569716794260010E+00    9.0707884188585908E+00
H    1.2357840653884555E+01    2.3335995753222831E+00    1.1187202568866939E+01
H    1.1946181003856093E+01    1.5338243304143420E+00    9.8820686313881101E+00
H    5.5871540556997310E+00    3.4492983737424923E+00    9.0442905792540138E+00
H    6.8930493554900556E+00    3.0239782285796442E+00    7.9852283560215769E+00
H   -1.4374297116819193E-01    1.5098214846070219E+00    7.5263531243311510E+00
H   -3.8865416711527734E-01    3.0530974755006528E+00    7.9298823362642681E+00
H    1.2176354233152376E+01    2.9746344065106389E+00    1.1924463434421881E+00
H    1.2991627169715594E+01    2.9143170210544822E+00    2.5155346727347623E+00
H    1.1517585159651885E+01    4.3255122446517156E+00    1.1434691026735697E+01
H    1.2784953658522443E+01    5.0635466714146471E+00    1.2040055000820955E+01
H    6.9671401310521484E+00    1.7387343976971770E+00    4.1849967664898804E+00
H    6.2296009063341096E+00    6.8946782722668110E-01    5.1579113656949067E+00
H    7.7273594948733537E+00    7.2216808380996129E+00    5.4888761780281445E+00
H    9.1691701765471390E+00    6.6296086344989842E+00    4.9460727574880705E+00
H    1.2846883768257252E+01    1.1781070688348681E+01    8.9005192602395091E+00
H    1.1983330930254077E+01    1.0563456761596088E+01    8.3168613221528727E+00
H    3.5249173108183744E+00    3.8402074967242905E+00    9.9510006399902142E+00
H    2.4297337650179962E+00    4.9330989925193176E+00    9.5245628999133931E+00
H    2.1731627523313195E+00    4.5583640086454080E+00    6.3013579985288972E+00
H    2.8563500932208230E+00    3.8576048156110372E+00    7.5841394106042044E+00
H    1.1402120515027963E+00    7.1967347480528989E+00    1.1594244541638981E+00
H    2.2451038169254702E+00    6.0044688738684542E+00    1.0028737587401440E+00
H    2.8159635337991040E+00    8.9701748198811728E+00    2.2995199891602192E+00
H    1.3289544665059396E+00    8.9939926467786062E+00    2.8983257079432758E+00
H    4.4550218369063384E+00    1.1540339425003729E+01    9.1644203320315896E+00
H    3.0505860859906124E+00    1.2474023132571277E+01    9.2862357274697676E+00
H    5.8591510063952699E+00    3.4580809397756949E+00    3.6616773633306714E+00
H    5.8328342793241230E+00    3.4003555439706883E+00    1.9823495664218851E+00
H    9.5573469725963278E-01    1.6451477306434459E+00    4.8407733836342572E+00
H    2.2282991647303789E+00    2.4813299829889184E+00    5.6872650230018280E+00
H    8.4431290012362670E+00    1.6050270153560435E+00    7.5442513472486263E+00
H    8.0660702671725986E+00    2.0137128293831599E+00    6.0338191030233039E+00
H    5.2179579256211817E+00    2.8944435585796229E+00    1.1676379626021241E+01
H    6.6808372388708932E+00    3.4137338960723729E+00    1.1974227321955064E+01
H    1.0787628803146331E+01    6.5181395670634563E+00    2.0987991922634737E+00
H    1.1679773573101574E+01    5.3602522151475052E+00    1.3423877172511673E+00
H    3.4353203684197937E+00    1.5422281194349337E+00    1.0899348788957123E+01
H    4.8360131199371228E+00    1.4266306188286333E+00    1.0089887937303754E+01
H    4.3860802582002361E+00    3.3639520802574729E+00    5.6883523933763671E+00
H    5.6851424648158693E+00    4.3694414775810912E+00    5.5473743673650260E+00
H    6.2905172776231773E+00    1.1824099733746865E+01    1.7188529435635054E+00
H    5.6254822935019853E+00    1.2118652077614374E+01    3.2827489265283338E-01
H    3.5448338646084259E+00    1.3905272139791243E+00    2.1815170599109055E+00
H    2.6082617908449830E+00    2.2011793681998393E+00    3.2448585926832423E+00
H    7.1214310944127943E+00    5.8746986475792520E+00    7.5240902705243249E+00
H    8.6555160452208302E+00    5.7349833608756740E+00    7.0296645633625214E+00
H    6.0004465275645478E+00    5.6511979030143751E+00    1.1673025686979996E+01
H    6.2576534574141336E+00    6.3249880564329963E+00    1.3168261180251777E+01
H    1.1110393485509279E+01    1.2636559250997562E+01    1.1695509562619547E+01
H    1.0264574453193084E+01    1.2297166054266942E+01    1.3044673119309824E+01
H    9.9063257583771058E+00    4.0523254539287938E+00    2.7328096710822090E+00
H    8.5320976562309863E+00    3.4662435851516049E+00    2.9418258347988844E+00
H    1.4549325922379617E+00    6.6684406032651902E+00    7.1063381287420935E+00
H    1.0013233336712173E+00    6.1758231958590706E+00    5.6553319488928828E+00
H    7.9834584102602326E+00    3.6965662970358184E+00    9.9295362401111529E+00
H    8.0702893407901737E+00    2.3148727995365173E+00    1.0750118168091253E+01
H    1.1741851247338113E+01    1.0457041172522603E+01    1.2099135806994575E+01
H    1.2145140467199665E+01    8.9346530857761763E+00    1.2412210742863291E+01
H    3.3373535314762908E+00    7.6121200308663841E+00    7.8531045761946778E+00
H    3.8438071109321039E+00    6.2417161568827764E+00    8.6114175129810473E+00
H    3.1132077807630667E+00    7.6196920981178398E+00    1.1070308623802086E+01
H    4.4752997918974957E+00    7.6309327249731647E+00    1.2076616644959755E+01
H    1.1595109347938790E+01    4.9846383472199394E+00    7.0588447442735758E+00
H    1.0300198428129862E+01    4.1359917521736964E+00    7.3179795841150890E+00
H    1.0066803629045175E+01    8.9449101926880186E+00    1.8648409458419322E+00
H    9.5721275817980480E+00    8.2654871620118797E+00    4.9820470823338797E-01
H    1.3188214514396930E+00    6.6901027276300749E+00    9.6503048603159698E+00
H    1.4021624816979217E+00    6.4512365186890124E+00    1.1227722789148084E+01
H    4.1225373888742274E+00    1.3301382656580947E+00    5.2661059713496643E+00
H    4.6863100279913033E+00    6.4323888154020903E-01    6.6181558656210902E+00
H    9.4703533710555980E+00    1.2334177792058954E+01    8.7409520154270659E+00
H    8.8486737260984025E+00    1.1353175343935574E+01    7.5414016813722471E+00
H    1.7346635260621541E+00    1.0023247752455404E+01    1.4531246290917868E-01
H    3.3374323737185496E+00    9.8445600332825833E+00   -2.3573946363600645E-01
H    7.0505799823411994E+00    1.1506005604268221E+01    4.1255571139599869E+00
H    6.4716019298304470E+00    9.9354966266938387E+00    3.7910911532771796E+00
H    1.3268589592360052E+00    5.8377393429884306E-01    1.1128929736800021E+01
H    2.5223619020800023E+00   -5.4513600115542926E-01    1.1460522258349213E+01
H    8.7695024945571767E+00    1.8730405160141235E+00    9.9029984538944826E-01
H    8.0908940305254617E+00    3.3984351975142568E-01    9.9164118000381607E-01
H    1.1203607709246077E+00    8.3716512006963963E+00    8.1792323344822613E+00
H    2.0883187077763314E+00    8.9941496096233031E+00    7.0138877035390941E+00
H    8.9092455661170824E+00    7.7938840102083207E+00    9.2222118549483181E+00
H    9.0650442925882189E+00    8.4492400512116550E+00    1.0614283870982435E+01
H    1.0125293357174876E+01    7.6972294325269486E+00    6.4507709233857398E+00
H    1.0499855152539560E+01    9.1992705817148011E+00    6.1555311709809937E+00
H    3.4971231604228281E+00    3.9586904012079560E+00    2.1122844778206820E+00
H    4.0584146620670394E+00    4.5845739999386987E+00    7.4299547661175147E-01
H    7.3547300979710037E+00    9.3907717765817598E+00    1.2034662471096714E+01
H    7.3341917810683253E+00    7.7711469163740059E+00    1.2054219542752222E+01
H    7.8271815569080614E+00    1.0161811172290045E+01    5.7814619639483711E+00
H    7.7120113817888374E+00    9.5092512996360679E+00    7.2843726304681198E+00
H    5.2899463871889889E+00    6.4889429596081083E+00    6.3929757321027427E+00
H    4.8678252868840373E+00    6.3175211180859456E+00    4.8313586361433387E+00
H    1.1521862541305659E+01    2.1923283626796963E+00    4.2496614328177067E+00
H    1.1222791846958186E+01    7.8414795598371057E-01    4.7829538343864550E+00
H    8.8119942350217553E+00    9.6778779613699655E+00    3.9666686831540865E+00
H    9.9342844970873045E+00    1.0814156988790979E+01    3.7816372858601044E+00
H    3.1082289528957920E+00    1.0546326407174556E+01    5.2868803913861138E+00
H    4.3132584907101847E+00    1.1455620653058093E+01    5.0610780320728006E+00
H    4.2220406784300935E-01    7.3045102192444658E+00    3.8013135649939347E+00
H    2.9772343931247669E-01    5.7724401932041571E+00    3.4526995513594261E+00
H    7.5860591209723163E+00    6.5678847601547252E+00    3.2915836809349037E+00
H    6.6758385347282116E+00    5.3831754309177136E+00    2.5200133494032642E+00
H    3.8532534172202157E+00    6.3060046348702627E+00    2.8123783749706766E+00
H    2.7953246440735424E+00    6.5485847389780201E+00    3.9537741358609386E+00
H    5.5553176437610974E+00    8.0120599991623678E+00    8.6583941104727913E+00
H    6.9993930795500665E+00    7.4780238970677120E+00    8.4104344163926665E+00
H    9.5571588990613474E+00    7.3280446145762124E-01    3.0174818797267147E+00
H    8.9237164310790096E+00    1.3437510586173340E-01    4.4076447871974374E+00
H    3.8482457315667618E+00    1.1174438455171170E+01    1.3441470566657223E+00
H    3.9626056228573137E+00    1.0964278466897941E+01    3.0102551897947136E+00
H    5.9449661422370585E+00    7.8891857853089897E+00    2.7995741535957506E+00
H    4.7652120121301920E+00    8.7229381074889911E+00    3.5906717261657688E+00
H    1.0905815782848318E+01    5.5302201800697182E+00    4.9342869455825316E+00
H    9.5033245323310798E+00    4.6732708376727645E+00    4.7171193166483789E+00
H    1.1491942104116944E+01    9.0018887406786678E+00    3.3983649908364315E+00
H    1.1959903629038996E+01    8.7851547644297359E+00    4.9401026898657650E+00
H    2.9404439844275694E+00    1.1333326721638294E+01    7.4881123877728735E+00
H    1.3993518978819197E+00    1.1120275827042835E+01    6.8063456551226507E+00
H    7.2181951384382641E+00    1.2809608485312735E-01    9.7032371258683643E+00
H    7.1648660378589826E+00    1.0772078745122220E-01    1.1367500988399577E+01
H    4.8113412051052453E+00    9.3237474535608165E+00    1.0837702423611839E+01
H    6.0816481698035449E+00    9.8060697913094295E+00    1.0186927365163395E+01
H    1.0565212262638376E+01    6.7306908548555997E+00    1.0314443980528067E+01
H    1.1239043366237166E+01    5.5938377372084380E+00    9.3143651163971768E+00
H    1.2188456954751981E+01    8.9927460848975684E+00    1.0127821223536843E+01
H    1.1415764242457888E+01    8.6329965781026807E+00    8.6365688433574164E+00
     &END COORD
     &VELOCITY
           2.4353373553191886E-04   -1.2006097602732793E-04    8.6380096428116044E-05
           5.1311970177100275E-05   -1.2708266213820314E-06   -1.4048482606996953E-05
          -1.3298767757284963E-04   -8.3910828185995140E-05   -1.7227772179751835E-04
           3.2311111387351950E-04   -2.8974228281284991E-04    2.2815855771224128E-04
           3.6807112799849855E-04   -1.6540691872350037E-04    8.2168021722916736E-05
           8.6843810077741657E-05   -1.6733145784970550E-04    2.3233906169713354E-04
          -1.9144732815541988E-04    3.6490306374226178E-05    1.7692428816342611E-04
          -2.7339212137215610E-04   -2.0181330324982584E-06   -2.5185283188809118E-04
          -2.9114797156500082E-04    1.4202524657060358E-04   -9.4207613531182375E-05
           4.9604684382034647E-05    1.9764986075547326E-04   -3.9675655902563818E-05
          -1.0338266296000915E-04    2.5533554886863146E-04   -1.7753567723067913E-04
           1.2393271803195759E-04   -5.1522817966035405E-05    2.4869105054679591E-04
           3.7171385611043836E-05    1.3912087635362442E-04   -2.6001104941581127E-04
          -9.0584380439769652E-05   -5.4256969624684570E-05    1.3571849163615499E-04
          -1.3532069034016413E-05    2.9312535024551454E-04   -1.1035216194449106E-04
           3.4365663856318379E-04    1.2592891247598288E-04    1.2984947778563771E-04
           3.1061310689270155E-05   -2.1491061234687859E-04    1.3642911352277994E-04
          -1.1197980598924550E-04    8.8708519144589261E-05    8.1551359030345837E-05
           7.2553977150477918E-05   -7.4882564047954887E-05   -3.7593240429406355E-05
          -3.9311008770296803E-05    7.7794970772363003E-05   -4.9503853884688343E-05
           1.3050850736319518E-04    3.2997372840721082E-05    2.3384938882024524E-04
          -2.3506710107518226E-04   -1.3038351983407357E-04   -7.8872779762588388E-05
           2.2656471395948738E-04    3.8984618374719858E-06   -1.0674489559494976E-04
          -4.8910812396542845E-04   -8.8250996371477122E-05    4.1168871693489956E-05
          -2.3516505104498480E-04    3.0141522873483424E-05   -4.3307021530019382E-05
           2.3874077440461615E-04    1.6479626533076020E-04   -6.5961174411231403E-06
           2.1570400439077842E-06   -3.6687604474271987E-04    1.9056449024240870E-05
           1.5263290746011905E-04   -4.5423683352947960E-05   -4.7828240983560171E-05
          -2.4361660474234091E-04   -1.5799538490309797E-04    1.4701044899503363E-04
          -4.6332302277787907E-05    6.6958418741025149E-05   -1.4093723621123888E-04
           7.0402526348755916E-05    1.4787938508885733E-04    2.3294646136459246E-04
          -1.0541845847310277E-04    9.0959878375026693E-05    1.4239486316779717E-04
           3.9447066267553587E-04    6.7697585287288401E-05    1.1078543440085592E-04
          -7.7642050396341708E-05   -1.2536442818519774E-04   -1.9896428319773879E-04
           4.0834731830704542E-04    1.4767279244966012E-04    2.0697580191156297E-05
          -2.3059415804935944E-04   -1.2069261926438665E-04    1.1528847271906589E-04
          -2.2453224222843669E-04    3.2508315209842889E-04   -1.1011175869290599E-04
          -2.5223464560116842E-05    3.9102949517039811E-04    1.6353834116437761E-04
           2.2717843315188375E-05   -6.2765751648108776E-06    4.4671040027936206E-05
          -2.2749659830658168E-04   -6.9576305509191580E-06    6.3788388337067655E-05
          -7.5841302718705728E-05    8.7087799013617329E-05   -2.6939094015349606E-04
          -1.5166914072063057E-04   -1.6482446184586471E-04   -8.8619423404013076E-05
           8.3255811669958609E-06   -5.3065384633432710E-05   -7.5044278376185095E-05
           6.6403553283117504E-05    1.1865592146567431E-04   -1.6876922794217036E-04
          -3.6854176965765874E-04   -4.4916679521172121E-04   -7.2212204727424892E-05
          -1.2514834926115643E-04   -2.1658705550593163E-04    1.4279407557405159E-05
           1.5301292386496221E-04    7.8212466735270308E-05   -2.6042789655650604E-04
           1.1597437780918593E-04    1.3153166326618901E-04    1.9714489345309531E-05
          -2.7586288468598939E-05    4.9135802993492971E-05   -8.2847135185316027E-05
           1.7533037836992197E-04   -1.0200057778976640E-04   -1.5955910870969548E-05
           9.1305293481840732E-06   -1.7063363096353563E-04   -1.2704533408606735E-04
           2.0532414019925837E-04   -1.8523108330936169E-04    1.5576953259997613E-04
          -9.5082342049757925E-05    3.8898283928668774E-04    6.8143354604002996E-05
          -3.3468517684356265E-05    1.1413973594338566E-04    4.8372670606339065E-05
          -3.2167308794129023E-04   -6.7373694363192439E-05   -3.3440505798341215E-04
          -1.0565699375449302E-04   -1.8612919959473494E-04   -4.1185047197081224E-05
           3.0227443463964009E-04   -1.9476821797197839E-08   -4.0898192670726352E-05
           3.4132859751154627E-04   -7.5666618758836029E-05    3.1369871723582098E-04
           4.8774504464171480E-06    9.5432986768375781E-05    4.0463993791102323E-05
          -7.3525642130744002E-05   -1.1023344657344591E-04   -1.6990266178522687E-04
          -9.5305467321299506E-05    1.5924492797695638E-04    1.0050784054837611E-04
           2.9577992716539050E-04   -2.0302338272470404E-04   -3.8000268543459183E-06
           3.3426751499293467E-05    2.9960856876081098E-05    2.2957098674831802E-05
           2.1247046210007281E-04   -1.8773508816534215E-04   -7.1323934923820797E-05
          -4.5158839413364456E-04   -3.6143060078060320E-05   -6.1976176341114672E-04
           9.6706711087614578E-04   -4.1494673937867755E-04   -1.4270244722029970E-03
           7.4657709738669528E-04    7.4979183341404554E-04   -2.9716006646373676E-05
           1.1944835029946976E-03   -2.4887952169220547E-04   -4.6965328168481718E-04
           3.3415678178464278E-04   -4.4057529885550292E-04   -4.5347033645386572E-04
           1.1012796130003531E-03    2.9083917955885865E-04   -1.2194190254974262E-03
           2.2415342341348862E-04    1.5937251548529009E-03   -3.7781211911154484E-04
           1.0073465758498592E-03   -6.8157982680995164E-04    2.6183752026020596E-04
          -6.9769183645599530E-05    2.4841597121082826E-05   -1.3349984300069996E-04
          -6.5395783734733572E-04   -1.1729839030053850E-04    1.7209949838503050E-04
          -6.3912725034424292E-04   -9.4833908164240169E-04   -2.5753189732827828E-04
          -3.9187509729513888E-04   -2.4417797176711344E-04   -5.0822500047661393E-04
           2.8904185307394045E-04   -2.0455475311390039E-03   -7.4488003303462328E-04
           3.8533435941715932E-04   -1.5649598638870644E-03   -8.1999331589435568E-04
           6.6163782210738951E-04   -2.0530137993058723E-04   -4.7022778535388309E-04
          -4.8571775219534270E-05   -1.4283455067398852E-03    8.4970777264121425E-04
          -5.1040502071918073E-04    9.0124041076296746E-04   -4.3717828656702291E-04
           2.7962496772888511E-04    1.1112791910417510E-04   -5.6980553869563123E-04
          -1.5080494509600783E-03    7.3672779723874427E-04   -5.7541529116646260E-06
           2.4475429620360908E-04    9.7437756642381184E-04   -4.8339679942946683E-04
          -8.5981680080964704E-05    5.9512037267101566E-04   -4.8949501757958853E-05
          -6.8266467565194252E-04   -5.5567223333361946E-04    7.1350489601458263E-04
           4.8033714499463981E-05    6.5011279414126696E-04   -7.7943973949959181E-04
           8.0491911090330037E-05   -7.8343749752279011E-04    7.2435736498708040E-04
           2.5839724571645516E-04    7.5578985185942497E-05   -5.8507007757356664E-04
           3.2468632064741533E-04   -2.7324024723984341E-04    2.5249479694836155E-04
          -1.0539062839296932E-03    5.0616494373682494E-04    7.1049452486840871E-04
           8.0541579376958812E-04   -1.4428395473259137E-04   -9.1111624630046202E-04
          -9.3901405516519420E-05   -1.7440336409964079E-04   -6.6695306718493629E-04
          -5.9667439631794683E-04    2.1020879938572165E-03   -1.6524975843652145E-04
          -5.9413689338445885E-04   -1.8314218673897003E-04   -3.0878549940285144E-04
          -1.1299139623451642E-04   -1.9706794255988354E-04    5.4164798334431898E-04
           3.7379192865434315E-04   -2.2187500989691286E-04   -3.6215118742333045E-04
          -5.2111287106552029E-04    8.9091209793710233E-04   -5.6207250900717294E-04
           6.7919292605426215E-04    1.3343181454543928E-04   -5.4958333089107374E-04
          -5.0955912349446265E-05   -7.8811310899837229E-04    5.3306738438457660E-04
          -8.4615276351169720E-05   -4.3969810880271286E-04   -1.5061331385048031E-03
           1.9621493944414176E-04    7.0658921103993572E-04    7.9834173948372723E-04
          -3.1086266729325984E-04    7.4710976671285209E-04    4.9983161015545769E-04
          -7.7088036734106245E-04    8.7923124000084771E-04    4.4906439902290841E-04
           4.7843808737967097E-04    2.0885304144698498E-04    9.9081078442024681E-04
           2.7383478090275954E-04   -1.2076470166464458E-05    2.0312636572824305E-03
           2.2238602225087414E-04    4.5732113705875785E-04    2.0297495633906071E-03
          -1.3983314820661494E-04    6.4110517558924485E-04    2.3541721875561228E-04
           1.0634351964009965E-03   -8.1406755449727267E-04    2.5592615928135705E-04
           5.5764666824880771E-04   -2.4944020396093600E-04    1.0095491375638349E-03
           8.2355304834616917E-04    4.6265598281614766E-04    1.0873683440520852E-03
           1.0554542732418447E-03    1.4711843503863735E-03   -1.9257994645520909E-04
          -5.9301436634774109E-04    1.4338243179655330E-03   -1.0518598720401641E-03
           1.7009542630827117E-04   -2.7229621441798060E-04   -1.8275874434653242E-04
          -3.9794180044513749E-04    1.1377334676056867E-03    1.5111872074629395E-04
          -2.1010779021142330E-04    2.5908254733888379E-04    1.2965840740995884E-03
           5.7014687399886124E-04    4.3663748724086379E-04   -1.4622705924245265E-04
           2.7451658005786718E-04   -1.1055104188215442E-04   -2.7011911348107738E-04
          -1.5488517943995246E-03   -4.8268639177394295E-04    1.0661735519979503E-03
           1.1223093817334731E-04    6.1336181167628661E-04   -2.4337739021516739E-04
          -8.4642821008788479E-04    2.7314900747397411E-04    4.4966165017758524E-04
          -9.0281864257902244E-04    4.6471968390716576E-04   -2.6632644266216696E-04
          -1.1909602595331992E-03    3.2546725744315227E-05   -5.5177771595278925E-05
           2.6878284876670743E-04   -1.1019214431345614E-03    6.7804196597760855E-04
           3.1926309387675855E-04    1.0177813137541862E-03   -3.0847823993150798E-04
          -4.2284471691121238E-04    4.3959034011514456E-04   -8.2960000476100550E-04
           4.5763012012715805E-04   -7.2873611065737390E-04   -1.9810871953577057E-04
          -2.5435809607250330E-04   -2.9857092395605930E-04    4.0812967128211038E-04
          -1.7369381694018438E-04    6.5701533355948206E-04    1.2674523034321939E-03
           2.5615963332395513E-04   -1.0911306543421700E-06    1.1679000472685143E-03
          -1.6308109878657368E-05    1.3149337651384176E-03    1.0407917755888086E-03
           8.9763869709974769E-04   -3.3652501424999355E-04    5.8254652403203562E-04
           1.0486726918955221E-03    1.4387708623482971E-04   -1.3227328924980519E-03
          -7.1280006662018309E-04    3.7576614693910127E-04   -7.8229807967087326E-04
          -4.9597517545064171E-05    2.0943390434295259E-05   -3.3577883355753269E-04