 # Version information for this restart file 
 # current date 2023-07-28 11:52:20.653
 # current working dir /mnt/lustre/indy2lfs/work/tc047/tc047/mrnuff-cirrus/cp2k/nuff-benchmarks/H2O-64-16node
 # Program compiled at                              Thu Jun 30 12:29:55 BST 2022
 # Program compiled on                                             cirrus-login3
 # Program compiled for                                             Cirrus-intel
 # Source code revision number                                       git:e635599
 &GLOBAL
   PRINT_LEVEL  LOW
   PROJECT_NAME H2O-64
   RUN_TYPE  MD
 &END GLOBAL
 &MOTION
   &MD
     ENSEMBLE  NVE
     STEPS  10
     TIMESTEP     4.9999999999999994E-01
     STEP_START_VAL  10
     TIME_START_VAL     4.9999999999999982E+00
     ECONS_START_VAL    -1.1007588181107001E+03
     TEMPERATURE     3.0000000000000000E+02
     &AVERAGES  T
       &RESTART_AVERAGES
         ITIMES_START  1
         AVECPU     5.0016984713729471E+00
         AVEHUGONIOT     0.0000000000000000E+00
         AVETEMP_BARO     0.0000000000000000E+00
         AVEPOT    -1.1010668160173032E+03
         AVEKIN     3.0070034549340885E-01
         AVETEMP     3.3142598856012125E+02
         AVEKIN_QM     0.0000000000000000E+00
         AVETEMP_QM     0.0000000000000000E+00
         AVEVOL     1.2909542132085598E+04
         AVECELL_A     2.3458682268415796E+01
         AVECELL_B     2.3458682268415796E+01
         AVECELL_C     2.3458682268415796E+01
         AVEALPHA     9.0000000000000000E+01
         AVEBETA     9.0000000000000000E+01
         AVEGAMMA     9.0000000000000000E+01
         AVE_ECONS    -1.0896371826364870E+01
         AVE_PRESS     0.0000000000000000E+00
         AVE_PXX     0.0000000000000000E+00
       &END RESTART_AVERAGES
     &END AVERAGES
   &END MD
 &END MOTION
 &FORCE_EVAL
   METHOD  QS
   &DFT
     BASIS_SET_FILE_NAME GTH_BASIS_SETS
     POTENTIAL_FILE_NAME POTENTIAL
     &SCF
       SCF_GUESS  ATOMIC
       &OT  T
         MINIMIZER  DIIS
       &END OT
       &PRINT
         &RESTART  OFF
         &END RESTART
       &END PRINT
     &END SCF
     &QS
       EPS_DEFAULT     9.9999999999999998E-13
       EXTRAPOLATION  PS
       EXTRAPOLATION_ORDER  3
     &END QS
     &MGRID
       CUTOFF     2.8000000000000000E+02
       REL_CUTOFF     3.0000000000000000E+01
     &END MGRID
     &XC
       DENSITY_CUTOFF     1.0000000000000000E-10
       GRADIENT_CUTOFF     1.0000000000000000E-10
       TAU_CUTOFF     1.0000000000000000E-10
       &XC_FUNCTIONAL  NO_SHORTCUT
         &PADE  T
         &END PADE
       &END XC_FUNCTIONAL
     &END XC
   &END DFT
   &SUBSYS
     &CELL
       A     1.2413800000000002E+01    0.0000000000000000E+00    0.0000000000000000E+00
       B     0.0000000000000000E+00    1.2413800000000002E+01    0.0000000000000000E+00
       C     0.0000000000000000E+00    0.0000000000000000E+00    1.2413800000000002E+01
       MULTIPLE_UNIT_CELL  1 1 1
     &END CELL
     &COORD
O    1.2265692089483910E+01    1.3554390129941738E+00    1.0875425741210378E+01
O    6.4523125712781537E+00    3.7059030017229730E+00    8.6472703373291147E+00
O    7.7679434805469738E-02    2.1684363409616951E+00    8.2608499727947855E+00
O    1.2086328917682383E+01    2.6383236471456284E+00    2.1708319631147996E+00
O    1.2290563434792515E+01    4.1705987030843827E+00    1.2102197401501044E+01
O    7.2035546534507819E+00    9.4146440982930346E-01    4.7596753308529642E+00
O    8.3332259924711209E+00    7.2077559238209918E+00    4.6827252174468583E+00
O    1.2331820354972923E+01    1.1521085584601156E+01    8.0815267568455695E+00
O    3.2742305248728338E+00    4.4591006237002579E+00    9.1745323461746899E+00
O    2.8601657947012047E+00    3.7871321994318139E+00    6.5410904120533626E+00
O    1.3797135980521853E+00    6.3917883108529860E+00    5.6509499049335810E-01
O    1.8717778176467836E+00    8.6859327223318505E+00    2.0908475002934974E+00
O    3.7724126920716210E+00    1.2107291686118607E+01    8.6205990989001240E+00
O    6.4253612010426089E+00    3.6667844669334748E+00    2.7875787966086141E+00
O    1.9996801569167242E+00    1.8525818618606200E+00    4.8671305057775207E+00
O    8.2870264289444240E+00    2.4221945186202221E+00    6.9417301194041059E+00
O    5.7524965525743106E+00    3.3354063225406638E+00    1.2486444073906755E+01
O    1.1313041873264011E+01    5.6568394091370315E+00    2.2481538681309892E+00
O    4.2889086332745139E+00    2.1146774663677093E+00    1.0586400462686882E+01
O    5.3988008779580188E+00    3.3584215761665890E+00    5.4859980676065856E+00
O    6.5093803283315301E+00    1.1870555907452577E+01    7.1448610258287271E-01
O    3.2525927590517711E+00    2.3434818290720916E+00    2.4132514479859113E+00
O    8.0086796499285668E+00    6.3565335203087452E+00    7.4977752039611003E+00
O    5.9288585788257606E+00    6.5082801666042123E+00    1.2195796701642507E+01
O    1.0610385294795650E+01    1.1861264429738654E+01    1.2200574174939975E+01
O    9.3403690756569162E+00    3.6890996107164020E+00    3.5273423653474283E+00
O    1.1111278086578089E+00    5.7890355206451787E+00    6.6473009501981606E+00
O    8.0194995343334519E+00    3.3269739508472611E+00    1.0869758841489817E+01
O    1.2376084676796182E+01    9.6748049821028719E+00    1.1772442429127477E+01
O    4.2098962719503872E+00    7.0914037241392203E+00    8.1403049780541092E+00
O    3.7839656891275419E+00    8.2290488153631092E+00    1.1585038748792572E+01
O    1.1076296436002728E+01    4.5429033328725783E+00    7.8327522122957376E+00
O    1.0435269965490448E+01    8.4217711221835199E+00    1.0328413587523000E+00
O    1.9828015281273399E+00    6.4005825276164732E+00    1.0353823655978502E+01
O    4.7041682767468256E+00    5.6227133611208324E-01    5.6097237226912355E+00
O    8.7178718108892959E+00    1.2242115811187313E+01    8.0976567639231387E+00
O    2.6327341025094935E+00    1.0520521873272740E+01    8.2905623926710970E-02
O    7.2399931187466269E+00    1.0511642196931632E+01    4.2432664330029271E+00
O    2.2807064781619149E+00    2.7612056427331122E-01    1.0807250569989238E+01
O    8.8632061138829421E+00    9.4642072500211061E-01    1.3400856795970999E+00
O    1.9443088048743689E+00    8.0893935868695017E+00    7.5355059867710752E+00
O    9.6598248299588416E+00    8.0355046451626073E+00    9.8565400345211156E+00
O    1.0903669851584352E+01    8.3307153998976453E+00    6.4773146916028361E+00
O    3.5124567442237513E+00    4.8693650210821771E+00    1.5451764009708071E+00
O    7.9775830453591334E+00    8.6026723333304442E+00    1.2050849513770391E+01
O    8.3694035479504585E+00    1.0019371052443088E+01    6.6836141760227976E+00
O    5.6546743218578586E+00    6.0810664230945601E+00    5.5283846573828379E+00
O    1.1742547847645382E+01    1.6241840639034251E+00    5.0859575162073183E+00
O    9.7585719615141979E+00    9.8110347715520607E+00    3.5364867774940536E+00
O    3.9627876574400567E+00    1.0548914651573872E+01    4.6848634346389293E+00
O    9.0110847254973581E-01    6.3699180308685053E+00    4.0614677068442600E+00
O    6.8825857356121807E+00    6.4084220847946058E+00    2.5046902581440369E+00
O    3.8180799995397825E+00    6.6391276583280669E+00    3.7786506828597193E+00
O    6.5639457974900433E+00    8.3081696931559055E+00    8.8142644496196532E+00
O    9.7792965800926535E+00    1.3440562766332656E-01    3.8518038249085311E+00
O    4.1040770115657699E+00    1.1645978558721421E+01    2.2167390496174280E+00
O    5.3225394392112850E+00    8.7370879819812615E+00    2.7520568939068677E+00
O    1.0008064086737260E+01    5.3735087324372941E+00    5.3757728940150553E+00
O    1.2260297782908898E+01    8.6464340629358443E+00    3.9709777917871252E+00
O    2.3431345497116727E+00    1.0747243885368649E+01    6.8128217267253763E+00
O    7.0016612916654157E+00    6.6240597665992917E-01    1.0534341561687864E+01
O    5.1725047982212100E+00    1.0218495319125287E+01    1.0357205957141312E+01
O    1.1186316801594360E+01    5.8851524495734120E+00    1.0299193203865940E+01
O    1.2277001782589624E+01    8.9569716794262799E+00    9.0707884188586831E+00
H    1.2357840653884164E+01    2.3335995753227987E+00    1.1187202568866109E+01
H    1.1946181003855374E+01    1.5338243304138930E+00    9.8820686313881971E+00
H    5.5871540557005472E+00    3.4492983737420024E+00    9.0442905792555273E+00
H    6.8930493554882322E+00    3.0239782285786969E+00    7.9852283560215565E+00
H   -1.4374297116939960E-01    1.5098214846061500E+00    7.5263531243330384E+00
H   -3.8865416711531553E-01    3.0530974755008056E+00    7.9298823362652362E+00
H    1.2176354233154274E+01    2.9746344065087014E+00    1.1924463434420700E+00
H    1.2991627169715258E+01    2.9143170210551941E+00    2.5155346727349159E+00
H    1.1517585159653281E+01    4.3255122446518861E+00    1.1434691026735514E+01
H    1.2784953658522500E+01    5.0635466714143504E+00    1.2040055000816833E+01
H    6.9671401310532453E+00    1.7387343976984391E+00    4.1849967664918051E+00
H    6.2296009063347215E+00    6.8946782722647915E-01    5.1579113656947602E+00
H    7.7273594948729549E+00    7.2216808380987993E+00    5.4888761780282342E+00
H    9.1691701765461211E+00    6.6296086344977514E+00    4.9460727574878351E+00
H    1.2846883768257600E+01    1.1781070688350201E+01    8.9005192602386476E+00
H    1.1983330930255182E+01    1.0563456761595923E+01    8.3168613221538727E+00
H    3.5249173108188456E+00    3.8402074967253306E+00    9.9510006399905855E+00
H    2.4297337650181436E+00    4.9330989925199642E+00    9.5245628999130538E+00
H    2.1731627523300538E+00    4.5583640086446238E+00    6.3013579985292552E+00
H    2.8563500932213501E+00    3.8576048156120102E+00    7.5841394106042896E+00
H    1.1402120515026539E+00    7.1967347480535686E+00    1.1594244541633463E+00
H    2.2451038169249888E+00    6.0044688738685013E+00    1.0028737587412284E+00
H    2.8159635337994104E+00    8.9701748198789861E+00    2.2995199891601388E+00
H    1.3289544665066353E+00    8.9939926467770501E+00    2.8983257079443110E+00
H    4.4550218369061110E+00    1.1540339425003797E+01    9.1644203320318134E+00
H    3.0505860859909903E+00    1.2474023132570533E+01    9.2862357274709062E+00
H    5.8591510063950016E+00    3.4580809397759174E+00    3.6616773633304511E+00
H    5.8328342793248407E+00    3.4003555439702846E+00    1.9823495664214892E+00
H    9.5573469725984661E-01    1.6451477306438498E+00    4.8407733836333176E+00
H    2.2282991647307511E+00    2.4813299829879041E+00    5.6872650230022641E+00
H    8.4431290012356186E+00    1.6050270153555271E+00    7.5442513472479886E+00
H    8.0660702671731936E+00    2.0137128293833375E+00    6.0338191030231467E+00
H    5.2179579256215813E+00    2.8944435585808481E+00    1.1676379626020211E+01
H    6.6808372388705592E+00    3.4137338960721482E+00    1.1974227321954874E+01
H    1.0787628803145529E+01    6.5181395670627271E+00    2.0987991922629208E+00
H    1.1679773573100869E+01    5.3602522151474830E+00    1.3423877172507852E+00
H    3.4353203684193661E+00    1.5422281194348828E+00    1.0899348788955304E+01
H    4.8360131199372427E+00    1.4266306188292994E+00    1.0089887937303411E+01
H    4.3860802582004581E+00    3.3639520802574081E+00    5.6883523933777411E+00
H    5.6851424648152760E+00    4.3694414775810317E+00    5.5473743673646272E+00
H    6.2905172776222216E+00    1.1824099733750000E+01    1.7188529435632116E+00
H    5.6254822935023210E+00    1.2118652077615300E+01    3.2827489265275611E-01
H    3.5448338646072992E+00    1.3905272139793150E+00    2.1815170599105373E+00
H    2.6082617908448729E+00    2.2011793682001839E+00    3.2448585926830269E+00
H    7.1214310944131523E+00    5.8746986475789651E+00    7.5240902705269663E+00
H    8.6555160452204891E+00    5.7349833608741996E+00    7.0296645633634611E+00
H    6.0004465275658454E+00    5.6511979030144088E+00    1.1673025686979708E+01
H    6.2576534574143823E+00    6.3249880564336651E+00    1.3168261180252086E+01
H    1.1110393485507956E+01    1.2636559250997706E+01    1.1695509562619030E+01
H    1.0264574453193289E+01    1.2297166054267118E+01    1.3044673119309929E+01
H    9.9063257583762763E+00    4.0523254539291482E+00    2.7328096710815402E+00
H    8.5320976562311035E+00    3.4662435851511519E+00    2.9418258347989483E+00
H    1.4549325922359735E+00    6.6684406032658083E+00    7.1063381287426441E+00
H    1.0013233336708001E+00    6.1758231958593717E+00    5.6553319488927309E+00
H    7.9834584102605639E+00    3.6965662970357105E+00    9.9295362401112808E+00
H    8.0702893407908238E+00    2.3148727995365741E+00    1.0750118168090872E+01
H    1.1741851247337907E+01    1.0457041172522313E+01    1.2099135806994543E+01
H    1.2145140467199035E+01    8.9346530857760253E+00    1.2412210742862728E+01
H    3.3373535314763565E+00    7.6121200308662633E+00    7.8531045761948777E+00
H    3.8438071109324148E+00    6.2417161568836006E+00    8.6114175129822783E+00
H    3.1132077807641600E+00    7.6196920981172980E+00    1.1070308623800459E+01
H    4.4752997918979718E+00    7.6309327249731114E+00    1.2076616644959234E+01
H    1.1595109347939530E+01    4.9846383472192235E+00    7.0588447442734497E+00
H    1.0300198428129351E+01    4.1359917521739664E+00    7.3179795841156521E+00
H    1.0066803629045465E+01    8.9449101926886332E+00    1.8648409458422703E+00
H    9.5721275817987710E+00    8.2654871620115440E+00    4.9820470823292157E-01
H    1.3188214514386136E+00    6.6901027276294016E+00    9.6503048603170267E+00
H    1.4021624816966871E+00    6.4512365186872422E+00    1.1227722789147656E+01
H    4.1225373888742096E+00    1.3301382656579581E+00    5.2661059713499352E+00
H    4.6863100279912446E+00    6.4323888153944964E-01    6.6181558656212722E+00
H    9.4703533710561700E+00    1.2334177792059283E+01    8.7409520154270215E+00
H    8.8486737260982942E+00    1.1353175343935986E+01    7.5414016813715623E+00
H    1.7346635260612471E+00    1.0023247752457033E+01    1.4531246290829850E-01
H    3.3374323737187219E+00    9.8445600332822476E+00   -2.3573946363454304E-01
H    7.0505799823405386E+00    1.1506005604268251E+01    4.1255571139610838E+00
H    6.4716019298294549E+00    9.9354966266940785E+00    3.7910911532789222E+00
H    1.3268589592363431E+00    5.8377393430131830E-01    1.1128929736799357E+01
H    2.5223619020800467E+00   -5.4513600115436045E-01    1.1460522258350519E+01
H    8.7695024945572744E+00    1.8730405160139307E+00    9.9029984538987925E-01
H    8.0908940305260000E+00    3.3984351975215871E-01    9.9164118000167378E-01
H    1.1203607709239203E+00    8.3716512006961832E+00    8.1792323344822631E+00
H    2.0883187077769398E+00    8.9941496096239675E+00    7.0138877035400702E+00
H    8.9092455661175638E+00    7.7938840102062636E+00    9.2222118549470622E+00
H    9.0650442925879045E+00    8.4492400512126284E+00    1.0614283870981597E+01
H    1.0125293357176053E+01    7.6972294325256838E+00    6.4507709233867949E+00
H    1.0499855152536888E+01    9.1992705817143410E+00    6.1555311709832345E+00
H    3.4971231604230941E+00    3.9586904012079240E+00    2.1122844778208663E+00
H    4.0584146620664168E+00    4.5845739999391926E+00    7.4299547661126053E-01
H    7.3547300979713279E+00    9.3907717765820848E+00    1.2034662471094780E+01
H    7.3341917810681991E+00    7.7711469163735005E+00    1.2054219542750447E+01
H    7.8271815569077683E+00    1.0161811172290367E+01    5.7814619639484910E+00
H    7.7120113817883587E+00    9.5092512996368583E+00    7.2843726304682912E+00
H    5.2899463871874470E+00    6.4889429596078445E+00    6.3929757321025384E+00
H    4.8678252868834564E+00    6.3175211180856081E+00    4.8313586361441070E+00
H    1.1521862541305852E+01    2.1923283626800032E+00    4.2496614328176872E+00
H    1.1222791846958149E+01    7.8414795598390652E-01    4.7829538343867855E+00
H    8.8119942350209985E+00    9.6778779613705126E+00    3.9666686831535634E+00
H    9.9342844970882638E+00    1.0814156988790257E+01    3.7816372858606915E+00
H    3.1082289528955700E+00    1.0546326407174057E+01    5.2868803913854965E+00
H    4.3132584907107763E+00    1.1455620653057681E+01    5.0610780320733184E+00
H    4.2220406784255915E-01    7.3045102192442908E+00    3.8013135649937517E+00
H    2.9772343931249240E-01    5.7724401932041136E+00    3.4526995513598262E+00
H    7.5860591209728936E+00    6.5678847601544339E+00    3.2915836809343499E+00
H    6.6758385347280331E+00    5.3831754309178539E+00    2.5200133494030683E+00
H    3.8532534172197606E+00    6.3060046348701650E+00    2.8123783749704487E+00
H    2.7953246440736184E+00    6.5485847389780254E+00    3.9537741358610243E+00
H    5.5553176437611933E+00    8.0120599991630534E+00    8.6583941104712885E+00
H    6.9993930795498169E+00    7.4780238970675814E+00    8.4104344163932954E+00
H    9.5571588990612444E+00    7.3280446145767830E-01    3.0174818797269798E+00
H    8.9237164310789296E+00    1.3437510586237275E-01    4.4076447871973068E+00
H    3.8482457315687184E+00    1.1174438455170332E+01    1.3441470566658291E+00
H    3.9626056228584217E+00    1.0964278466897543E+01    3.0102551897943379E+00
H    5.9449661422367193E+00    7.8891857853085057E+00    2.7995741535961574E+00
H    4.7652120121292008E+00    8.7229381074894494E+00    3.5906717261650689E+00
H    1.0905815782848542E+01    5.5302201800703346E+00    4.9342869455823406E+00
H    9.5033245323303959E+00    4.6732708376734262E+00    4.7171193166483922E+00
H    1.1491942104116239E+01    9.0018887406792256E+00    3.3983649908376448E+00
H    1.1959903629040806E+01    8.7851547644291053E+00    4.9401026898664480E+00
H    2.9404439844275965E+00    1.1333326721638590E+01    7.4881123877728166E+00
H    1.3993518978820858E+00    1.1120275827043232E+01    6.8063456551225476E+00
H    7.2181951384373919E+00    1.2809608485366258E-01    9.7032371258677443E+00
H    7.1648660378583724E+00    1.0772078745128397E-01    1.1367500988399762E+01
H    4.8113412051061273E+00    9.3237474535603599E+00    1.0837702423612095E+01
H    6.0816481698037164E+00    9.8060697913096586E+00    1.0186927365163514E+01
H    1.0565212262639143E+01    6.7306908548563786E+00    1.0314443980527834E+01
H    1.1239043366237411E+01    5.5938377372096246E+00    9.3143651163970471E+00
H    1.2188456954751173E+01    8.9927460848963765E+00    1.0127821223536392E+01
H    1.1415764242458753E+01    8.6329965781012525E+00    8.6365688433571606E+00
     &END COORD
     &VELOCITY
           2.4353373553214814E-04   -1.2006097602646906E-04    8.6380096426913407E-05
           5.1311970178214510E-05   -1.2708266195609025E-06   -1.4048482610464704E-05
          -1.3298767757337839E-04   -8.3910828185392296E-05   -1.7227772179870260E-04
           3.2311111387457601E-04   -2.8974228281244198E-04    2.2815855771138928E-04
           3.6807112799768031E-04   -1.6540691871954317E-04    8.2168021724025739E-05
           8.6843810079434273E-05   -1.6733145785136465E-04    2.3233906169729948E-04
          -1.9144732815386560E-04    3.6490306374257288E-05    1.7692428816607649E-04
          -2.7339212136995349E-04   -2.0181330322254537E-06   -2.5185283188567249E-04
          -2.9114797156667570E-04    1.4202524657085431E-04   -9.4207613534904740E-05
           4.9604684383312278E-05    1.9764986075522178E-04   -3.9675655900288762E-05
          -1.0338266296101254E-04    2.5533554886901185E-04   -1.7753567723216679E-04
           1.2393271803172532E-04   -5.1522817965661166E-05    2.4869105054736913E-04
           3.7171385612024544E-05    1.3912087635305068E-04   -2.6001104941535667E-04
          -9.0584380439768473E-05   -5.4256969624978538E-05    1.3571849163721957E-04
          -1.3532069033011978E-05    2.9312535024598031E-04   -1.1035216194697059E-04
           3.4365663856521830E-04    1.2592891247557858E-04    1.2984947778332652E-04
           3.1061310688176845E-05   -2.1491061234624873E-04    1.3642911352193586E-04
          -1.1197980598789092E-04    8.8708519143709105E-05    8.1551359031145585E-05
           7.2553977151455773E-05   -7.4882564047428954E-05   -3.7593240427349312E-05
          -3.9311008768314935E-05    7.7794970773915580E-05   -4.9503853884505031E-05
           1.3050850736102097E-04    3.2997372840450932E-05    2.3384938882136611E-04
          -2.3506710107395402E-04   -1.3038351983338372E-04   -7.8872779761068011E-05
           2.2656471395989618E-04    3.8984618361491770E-06   -1.0674489559959082E-04
          -4.8910812396549264E-04   -8.8250996373688271E-05    4.1168871695276470E-05
          -2.3516505104410361E-04    3.0141522875816749E-05   -4.3307021531150232E-05
           2.3874077440316869E-04    1.6479626533102057E-04   -6.5961174436698499E-06
           2.1570400439079045E-06   -3.6687604474031570E-04    1.9056449024359675E-05
           1.5263290745842195E-04   -4.5423683353729440E-05   -4.7828240980888453E-05
          -2.4361660474282203E-04   -1.5799538490439240E-04    1.4701044899674876E-04
          -4.6332302279344421E-05    6.6958418741527257E-05   -1.4093723621072201E-04
           7.0402526348232192E-05    1.4787938508785604E-04    2.3294646136538282E-04
          -1.0541845847225942E-04    9.0959878373170674E-05    1.4239486316642644E-04
           3.9447066267676596E-04    6.7697585285307713E-05    1.1078543439988297E-04
          -7.7642050401798159E-05   -1.2536442818209047E-04   -1.9896428319844073E-04
           4.0834731830655677E-04    1.4767279245022277E-04    2.0697580192295919E-05
          -2.3059415805140983E-04   -1.2069261926292935E-04    1.1528847271812403E-04
          -2.2453224222928708E-04    3.2508315209829706E-04   -1.1011175869260001E-04
          -2.5223464560372476E-05    3.9102949516814459E-04    1.6353834116143677E-04
           2.2717843314291703E-05   -6.2765751652793411E-06    4.4671040027849328E-05
          -2.2749659830834166E-04   -6.9576305501753724E-06    6.3788388337365296E-05
          -7.5841302719609397E-05    8.7087799013473184E-05   -2.6939094015550840E-04
          -1.5166914071775630E-04   -1.6482446184776234E-04   -8.8619423401467654E-05
           8.3255811671712780E-06   -5.3065384630225694E-05   -7.5044278374592524E-05
           6.6403553282732436E-05    1.1865592146473674E-04   -1.6876922794161622E-04
          -3.6854176965845107E-04   -4.4916679521530769E-04   -7.2212204723952383E-05
          -1.2514834926158157E-04   -2.1658705550468680E-04    1.4279407555500771E-05
           1.5301292386847538E-04    7.8212466736398353E-05   -2.6042789655600444E-04
           1.1597437781010758E-04    1.3153166326569025E-04    1.9714489345671820E-05
          -2.7586288468986653E-05    4.9135802992975291E-05   -8.2847135186971495E-05
           1.7533037836998356E-04   -1.0200057778924760E-04   -1.5955910871443727E-05
           9.1305293484806008E-06   -1.7063363096520069E-04   -1.2704533408535189E-04
           2.0532414019953669E-04   -1.8523108330920570E-04    1.5576953259986833E-04
          -9.5082342049765582E-05    3.8898283928869037E-04    6.8143354601965563E-05
          -3.3468517683806181E-05    1.1413973594188256E-04    4.8372670606457995E-05
          -3.2167308794149086E-04   -6.7373694363059692E-05   -3.3440505798193275E-04
          -1.0565699375466847E-04   -1.8612919959447985E-04   -4.1185047195025895E-05
           3.0227443463976754E-04   -1.9476822006756331E-08   -4.0898192670230722E-05
           3.4132859751092768E-04   -7.5666618758013038E-05    3.1369871723677426E-04
           4.8774504498386901E-06    9.5432986766225917E-05    4.0463993791496173E-05
          -7.3525642131729528E-05   -1.1023344657424006E-04   -1.6990266178351158E-04
          -9.5305467321804975E-05    1.5924492797644927E-04    1.0050784054678912E-04
           2.9577992716418400E-04   -2.0302338272325639E-04   -3.8000268543311571E-06
           3.3426751498887067E-05    2.9960856876646658E-05    2.2957098673865052E-05
           2.1247046209616128E-04   -1.8773508816182882E-04   -7.1323934922739224E-05
          -4.5158839413678338E-04   -3.6143060077863863E-05   -6.1976176341748410E-04
           9.6706711087541741E-04   -4.1494673938333821E-04   -1.4270244721958721E-03
           7.4657709737010938E-04    7.4979183340522361E-04   -2.9716006621344177E-05
           1.1944835029894406E-03   -2.4887952170642879E-04   -4.6965328169403637E-04
           3.3415678177759682E-04   -4.4057529884297762E-04   -4.5347033642735395E-04
           1.1012796130081832E-03    2.9083917953921996E-04   -1.2194190254919211E-03
           2.2415342342730057E-04    1.5937251548327406E-03   -3.7781211910473301E-04
           1.0073465758456625E-03   -6.8157982680407570E-04    2.6183752026363638E-04
          -6.9769183588112244E-05    2.4841597105302710E-05   -1.3349984295421650E-04
          -6.5395783737139514E-04   -1.1729839035239326E-04    1.7209949836422477E-04
          -6.3912725034376240E-04   -9.4833908161951375E-04   -2.5753189732201506E-04
          -3.9187509729793276E-04   -2.4417797176680140E-04   -5.0822500047480710E-04
           2.8904185308642233E-04   -2.0455475311501373E-03   -7.4488003305435890E-04
           3.8533435938340838E-04   -1.5649598638800620E-03   -8.1999331590473833E-04
           6.6163782210784325E-04   -2.0530137992082157E-04   -4.7022778536416875E-04
          -4.8571775204070511E-05   -1.4283455067273440E-03    8.4970777264948454E-04
          -5.1040502070997379E-04    9.0124041075541578E-04   -4.3717828654869523E-04
           2.7962496773701457E-04    1.1112791910648155E-04   -5.6980553870143637E-04
          -1.5080494509723673E-03    7.3672779723789762E-04   -5.7541529153552773E-06
           2.4475429621178624E-04    9.7437756642870528E-04   -4.8339679942452211E-04
          -8.5981680087651616E-05    5.9512037269231969E-04   -4.8949501754912570E-05
          -6.8266467563370538E-04   -5.5567223334335202E-04    7.1350489602808279E-04
           4.8033714484978416E-05    6.5011279412012361E-04   -7.7943973950192708E-04
           8.0491911104684224E-05   -7.8343749753825723E-04    7.2435736498443560E-04
           2.5839724570280039E-04    7.5578985196018408E-05   -5.8507007758754395E-04
           3.2468632066168690E-04   -2.7324024725173705E-04    2.5249479694326201E-04
          -1.0539062839293881E-03    5.0616494373904842E-04    7.1049452485835273E-04
           8.0541579377013499E-04   -1.4428395473778366E-04   -9.1111624630742434E-04
          -9.3901405534386367E-05   -1.7440336409979134E-04   -6.6695306718823552E-04
          -5.9667439631491475E-04    2.1020879938541182E-03   -1.6524975842401434E-04
          -5.9413689339209944E-04   -1.8314218673525672E-04   -3.0878549941439130E-04
          -1.1299139622534327E-04   -1.9706794255003286E-04    5.4164798336286501E-04
           3.7379192865345529E-04   -2.2187500988977570E-04   -3.6215118742750902E-04
          -5.2111287106887155E-04    8.9091209793493132E-04   -5.6207250900156902E-04
           6.7919292602939163E-04    1.3343181456918545E-04   -5.4958333089356643E-04
          -5.0955912343467825E-05   -7.8811310900948016E-04    5.3306738436104768E-04
          -8.4615276356386765E-05   -4.3969810880364077E-04   -1.5061331385126248E-03
           1.9621493945050920E-04    7.0658921103696165E-04    7.9834173947474017E-04
          -3.1086266729489736E-04    7.4710976671115131E-04    4.9983161016505862E-04
          -7.7088036734840847E-04    8.7923123998022380E-04    4.4906439901757310E-04
           4.7843808737884605E-04    2.0885304147571287E-04    9.9081078440380250E-04
           2.7383478091312630E-04   -1.2076470162801088E-05    2.0312636572828451E-03
           2.2238602224779444E-04    4.5732113704430533E-04    2.0297495633820684E-03
          -1.3983314820364832E-04    6.4110517559261607E-04    2.3541721874942355E-04
           1.0634351964314383E-03   -8.1406755448704018E-04    2.5592615930362093E-04
           5.5764666823462559E-04   -2.4944020396375140E-04    1.0095491375785926E-03
           8.2355304835586693E-04    4.6265598282068993E-04    1.0873683440570756E-03
           1.0554542732471484E-03    1.4711843503857134E-03   -1.9257994644050587E-04
          -5.9301436636647524E-04    1.4338243179542623E-03   -1.0518598720355779E-03
           1.7009542630350334E-04   -2.7229621441065356E-04   -1.8275874432952021E-04
          -3.9794180045636131E-04    1.1377334676035786E-03    1.5111872075040047E-04
          -2.1010779018902089E-04    2.5908254734001868E-04    1.2965840741160529E-03
           5.7014687398381316E-04    4.3663748723630016E-04   -1.4622705924708626E-04
           2.7451658005864590E-04   -1.1055104188446971E-04   -2.7011911347378525E-04
          -1.5488517943957570E-03   -4.8268639176897579E-04    1.0661735519881027E-03
           1.1223093817898762E-04    6.1336181166877905E-04   -2.4337739021461829E-04
          -8.4642821009156891E-04    2.7314900747618117E-04    4.4966165017842864E-04
          -9.0281864258260985E-04    4.6471968390258950E-04   -2.6632644266037125E-04
          -1.1909602595209208E-03    3.2546725729543040E-05   -5.5177771586379848E-05
           2.6878284877485212E-04   -1.1019214431081204E-03    6.7804196597841195E-04
           3.1926309390325721E-04    1.0177813137712160E-03   -3.0847823992627004E-04
          -4.2284471691708702E-04    4.3959034012240036E-04   -8.2960000476970633E-04
           4.5763012013510097E-04   -7.2873611066050475E-04   -1.9810871954425961E-04
          -2.5435809607745078E-04   -2.9857092395528485E-04    4.0812967128236359E-04
          -1.7369381694711265E-04    6.5701533357229364E-04    1.2674523034495297E-03
           2.5615963331123229E-04   -1.0911306595604554E-06    1.1679000472574557E-03
          -1.6308109813587132E-05    1.3149337651069733E-03    1.0407917756768328E-03
           8.9763869713734565E-04   -3.3652501426370416E-04    5.8254652397561439E-04
           1.0486726919019015E-03    1.4387708622711358E-04   -1.3227328924923416E-03
          -7.1280006662098605E-04    3.7576614693550606E-04   -7.8229807967530656E-04
          -4.9597517520217252E-05    2.0943390437083386E-05   -3.3577883354116915E-04