 # Version information for this restart file 
 # current date 2023-08-03 14:56:38.497
 # current working dir /mnt/lustre/indy2lfs/work/tc047/tc047/mrnuff-cirrus/cp2k/nuff-benchmarks/H2O-64-16node
 # Program compiled at                               Wed Aug 2 15:51:15 BST 2023
 # Program compiled on                                             cirrus-login2
 # Program compiled for                                             Cirrus-intel
 # Source code revision number                                       git:d8d7100
 &GLOBAL
   PRINT_LEVEL  LOW
   PROJECT_NAME H2O-64
   RUN_TYPE  MD
 &END GLOBAL
 &MOTION
   &MD
     ENSEMBLE  NVE
     STEPS  10
     TIMESTEP     4.9999999999999994E-01
     STEP_START_VAL  10
     TIME_START_VAL     4.9999999999999982E+00
     ECONS_START_VAL    -1.1007623251464322E+03
     TEMPERATURE     3.0000000000000000E+02
     &AVERAGES  T
       &RESTART_AVERAGES
         ITIMES_START  1
         AVECPU     1.6533242900157348E+00
         AVEHUGONIOT     0.0000000000000000E+00
         AVETEMP_BARO     0.0000000000000000E+00
         AVEPOT    -1.1010668154404113E+03
         AVEKIN     3.0069890126036969E-01
         AVETEMP     3.3142439675495757E+02
         AVEKIN_QM     0.0000000000000000E+00
         AVETEMP_QM     0.0000000000000000E+00
         AVEVOL     1.2909542132085600E+04
         AVECELL_A     2.3458682268415796E+01
         AVECELL_B     2.3458682268415796E+01
         AVECELL_C     2.3458682268415796E+01
         AVEALPHA     9.0000000000000000E+01
         AVEBETA     9.0000000000000000E+01
         AVEGAMMA     9.0000000000000000E+01
         AVE_ECONS    -5.7036317398204446E+00
         AVE_PRESS     0.0000000000000000E+00
         AVE_PXX     0.0000000000000000E+00
       &END RESTART_AVERAGES
     &END AVERAGES
   &END MD
 &END MOTION
 &FORCE_EVAL
   METHOD  QS
   &DFT
     BASIS_SET_FILE_NAME GTH_BASIS_SETS
     POTENTIAL_FILE_NAME POTENTIAL
     &SCF
       SCF_GUESS  ATOMIC
       &OT  T
         MINIMIZER  DIIS
       &END OT
       &PRINT
         &RESTART  OFF
         &END RESTART
       &END PRINT
     &END SCF
     &QS
       EPS_DEFAULT     9.9999999999999998E-13
       EXTRAPOLATION  PS
       EXTRAPOLATION_ORDER  3
     &END QS
     &MGRID
       CUTOFF     2.8000000000000000E+02
       REL_CUTOFF     3.0000000000000000E+01
     &END MGRID
     &XC
       DENSITY_CUTOFF     1.0000000000000000E-10
       GRADIENT_CUTOFF     1.0000000000000000E-10
       TAU_CUTOFF     1.0000000000000000E-10
       &XC_FUNCTIONAL  NO_SHORTCUT
         &PADE  T
         &END PADE
       &END XC_FUNCTIONAL
     &END XC
   &END DFT
   &SUBSYS
     &CELL
       A     1.2413800000000002E+01    0.0000000000000000E+00    0.0000000000000000E+00
       B     0.0000000000000000E+00    1.2413800000000002E+01    0.0000000000000000E+00
       C     0.0000000000000000E+00    0.0000000000000000E+00    1.2413800000000002E+01
       MULTIPLE_UNIT_CELL  1 1 1
     &END CELL
     &COORD
O    1.2265691221627959E+01    1.3554379171423825E+00    1.0875430684012716E+01
O    6.4523069643984980E+00    3.7059062633719289E+00    8.6472636643113567E+00
O    7.7675673951376561E-02    2.1684371536246267E+00    8.2608521123256171E+00
O    1.2086330589737107E+01    2.6383252619362101E+00    2.1708326975636685E+00
O    1.2290560196510302E+01    4.1705949204699806E+00    1.2102197043947415E+01
O    7.2035596726109583E+00    9.4146485856915174E-01    4.7596718561381142E+00
O    8.3332223409533555E+00    7.2077504740972014E+00    4.6827221582125995E+00
O    1.2331825707496037E+01    1.1521085308244970E+01    8.0815299734465622E+00
O    3.2742345188961597E+00    4.4591086965600022E+00    9.1745403213677168E+00
O    2.8601595120416716E+00    3.7871245016871882E+00    6.5410915744247111E+00
O    1.3797112886110137E+00    6.3917880581901212E+00    5.6509704637617497E-01
O    1.8717761880990487E+00    8.6859262981941701E+00    2.0908519529191198E+00
O    3.7724064802103698E+00    1.2107291458155819E+01    8.6206045004982457E+00
O    6.4253589961830109E+00    3.6667889351993548E+00    2.7875811960065500E+00
O    1.9996776817699062E+00    1.8525814940777825E+00    4.8671276287697101E+00
O    8.2870232697560162E+00    2.4222003421165135E+00    6.9417328333568573E+00
O    5.7524951496893335E+00    3.3354107633529151E+00    1.2486441927304295E+01
O    1.1313051414990110E+01    5.6568428932996397E+00    2.2481541693217784E+00
O    4.2889057121707435E+00    2.1146768890845014E+00    1.0586394798004813E+01
O    5.3987998378703148E+00    3.3584238927998538E+00    5.4860023554711876E+00
O    6.5093881290543827E+00    1.1870556687544102E+01    7.1448877052674786E-01
O    3.2525895246416558E+00    2.3434817325715209E+00    2.4132492711214595E+00
O    8.0086831362982238E+00    6.3565304698358274E+00    7.4977786194836220E+00
O    5.9288605826881158E+00    6.5082868323258900E+00    1.2195795095729443E+01
O    1.0610386311436550E+01    1.1861263632461046E+01    1.2200578573099016E+01
O    9.3403643295944825E+00    3.6891058088922035E+00    3.5273419115088886E+00
O    1.1111299843540774E+00    5.7890416771149535E+00    6.6473030303814538E+00
O    8.0194980711237918E+00    3.3269761635710440E+00    1.0869760158477488E+01
O    1.2376083013546657E+01    9.6748017485164191E+00    1.1772437464201841E+01
O    4.2098973265834978E+00    7.0914059878456781E+00    8.1403049713511155E+00
O    3.7839651612970338E+00    8.2290477965538482E+00    1.1585029598452715E+01
O    1.1076298200094982E+01    4.5429098149790583E+00    7.8327544665100817E+00
O    1.0435269832523138E+01    8.4217540714630754E+00    1.0328469115847609E+00
O    1.9827956974873064E+00    6.4005653370062143E+00    1.0353833557955957E+01
O    4.7041684252649922E+00    5.6226860857464356E-01    5.6097297040744527E+00
O    8.7178686987316958E+00    1.2242114021519084E+01    8.0976596680829385E+00
O    2.6327397232809284E+00    1.0520524625894543E+01    8.2914708818933591E-02
O    7.2399912123021979E+00    1.0511639516828597E+01    4.2432763972060439E+00
O    2.2807117212628256E+00    2.7612433538577558E-01    1.0807249794939544E+01
O    8.8632074472443687E+00    9.4642167576060388E-01    1.3400870233089923E+00
O    1.9443010564854066E+00    8.0893907787972275E+00    7.5354954085065007E+00
O    9.6598268770605706E+00    8.0354923931291733E+00    9.8565408159862145E+00
O    1.0903669231891181E+01    8.3307122625610077E+00    6.4773119488925559E+00
O    3.5124665132315265E+00    4.8693737552338483E+00    1.5451810315134331E+00
O    7.9775887181865492E+00    8.6026768360209740E+00    1.2050859810705251E+01
O    8.3694028848611683E+00    1.0019375195784743E+01    6.6836126003785834E+00
O    5.6546609223314297E+00    6.0810554249665678E+00    5.5283899539327486E+00
O    1.1742552751790557E+01    1.6241883377932254E+00    5.0859546263628106E+00
O    9.7585749951473808E+00    9.8110344561913010E+00    3.5364834297912835E+00
O    3.9627902122681156E+00    1.0548916241539331E+01    4.6848631718496492E+00
O    9.0110924202406462E-01    6.3699160958047871E+00    4.0614660823325552E+00
O    6.8825876156875916E+00    6.4084176011473009E+00    2.5046872105492355E+00
O    3.8180772811827239E+00    6.6391261700160964E+00    3.7786504202964855E+00
O    6.5639467316230400E+00    8.3081673455501015E+00    8.8142645601751344E+00
O    9.7792980437880939E+00    1.3440093692248106E-01    3.8518018541300179E+00
O    4.1040698796140491E+00    1.1645975677414304E+01    2.2167371830935565E+00
O    5.3225429743820483E+00    8.7370886225245492E+00    2.7520608154200898E+00
O    1.0008058591962532E+01    5.3735029665408236E+00    5.3757689310938614E+00
O    1.2260293130221505E+01    8.6464312203550904E+00    3.9709765249997364E+00
O    2.3431385601209938E+00    1.0747244557908893E+01    6.8128199420222808E+00
O    7.0016868551874429E+00    6.6241368924082800E-01    1.0534335410490771E+01
O    5.1724988369890719E+00    1.0218489635932999E+01    1.0357201131261693E+01
O    1.1186305513789563E+01    5.8851551015739725E+00    1.0299187716035524E+01
O    1.2277001260224347E+01    8.9569800093948935E+00    9.0707829070917345E+00
H    1.2357860830731637E+01    2.3336130669252966E+00    1.1187155568543389E+01
H    1.1946220241711007E+01    1.5338173488075313E+00    9.8820453883928856E+00
H    5.5871853426088816E+00    3.4492613541409378E+00    9.0443492587056973E+00
H    6.8931134907708067E+00    3.0239505626689489E+00    7.9852740730676661E+00
H   -1.4374932807745150E-01    1.5098328419609179E+00    7.5263433502060009E+00
H   -3.8863081470384597E-01    3.0530889725932990E+00    7.9297897962466317E+00
H    1.2176296489828291E+01    2.9747369580386520E+00    1.1924332874810335E+00
H    1.2991672705128549E+01    2.9142153785988194E+00    2.5155247900316273E+00
H    1.1517567593231657E+01    4.3255900368446323E+00    1.1434680677252983E+01
H    1.2784986513018264E+01    5.0635244336049565E+00    1.2040091012079195E+01
H    6.9670622346703537E+00    1.7387225601621046E+00    4.1850000735929536E+00
H    6.2296039666331398E+00    6.8947303211078881E-01    5.1579542956582207E+00
H    7.7273735081136437E+00    7.2217674062564816E+00    5.4888583172761054E+00
H    9.1692072167870187E+00    6.6296203275141341E+00    4.9460943069402106E+00
H    1.2846855747609803E+01    1.1781022044300988E+01    8.9005547148166659E+00
H    1.1983278974113805E+01    1.0563476629178165E+01    8.3168526530914200E+00
H    3.5248483355809941E+00    3.8400890178711817E+00    9.9509258876193218E+00
H    2.4297317699944960E+00    4.9331020171902686E+00    9.5245232744317505E+00
H    2.1731938184001547E+00    4.5584091436369762E+00    6.3013341591592633E+00
H    2.8564526256040268E+00    3.8576860117976737E+00    7.5841383258266157E+00
H    1.1402539117553168E+00    7.1967454275136094E+00    1.1594208983718879E+00
H    2.2451171240552519E+00    6.0044560574518862E+00    1.0028292980712454E+00
H    2.8160026093260675E+00    8.9701473038210811E+00    2.2994247561327064E+00
H    1.3289450005947714E+00    8.9940773536406518E+00    2.8983100092882794E+00
H    4.4550591679044560E+00    1.1540320632851488E+01    9.1643576662466160E+00
H    3.0505711472946433E+00    1.2474005028879827E+01    9.2862522483542840E+00
H    5.8591666421269082E+00    3.4580100700778074E+00    3.6616851024567185E+00
H    5.8328742264891602E+00    3.4002922178487145E+00    1.9823307374076007E+00
H    9.5572611638982419E-01    1.6451712168315757E+00    4.8407909619533029E+00
H    2.2283444181418863E+00    2.4812713852577564E+00    5.6873030305147516E+00
H    8.4431245059900473E+00    1.6049877318588810E+00    7.5442116124544247E+00
H    8.0660994841678377E+00    2.0136933689787053E+00    6.0338203198000793E+00
H    5.2179741117746232E+00    2.8944033191687568E+00    1.1676399084693561E+01
H    6.6808709760188796E+00    3.4137078887782280E+00    1.1974300217660563E+01
H    1.0787579562973464E+01    6.5181197889747358E+00    2.0988579269068395E+00
H    1.1679706778665352E+01    5.3602110737706061E+00    1.3423727078773176E+00
H    3.4353057955580995E+00    1.5422699911177598E+00    1.0899340815425393E+01
H    4.8360485702945804E+00    1.4266340285650261E+00    1.0089916384864692E+01
H    4.3860607829044342E+00    3.3639145070872507E+00    5.6882685052593036E+00
H    5.6851714190647096E+00    4.3694444329674127E+00    5.5474154036562693E+00
H    6.2904804048384060E+00    1.1824217953334321E+01    1.7188480100641885E+00
H    5.6254641812454480E+00    1.2118531010247478E+01    3.2824508347048442E-01
H    3.5448573483477328E+00    1.3905341519237007E+00    2.1815279666972152E+00
H    2.6083113748095221E+00    2.2011598085359734E+00    3.2448945681040211E+00
H    7.1214218837229089E+00    5.8747071446837351E+00    7.5240572137577235E+00
H    8.6555160568688763E+00    5.7350202337796139E+00    7.0296204332783097E+00
H    6.0003836070026830E+00    5.6511562312009138E+00    1.1673082486798569E+01
H    6.2576732802190049E+00    6.3249637437985191E+00    1.3168254323635455E+01
H    1.1110396422510844E+01    1.2636582150483813E+01    1.1695466243762898E+01
H    1.0264522667314196E+01    1.2297177086809599E+01    1.3044653989288506E+01
H    9.9063833653607443E+00    4.0522743932582035E+00    2.7328440010561827E+00
H    8.5320879706477921E+00    3.4662362318688280E+00    2.9418373706984409E+00
H    1.4550165199539209E+00    6.6684268578474581E+00    7.1063081480779360E+00
H    1.0011846960113926E+00    6.1757849888512899E+00    5.6553257210841181E+00
H    7.9834383168153895E+00    3.6965600156461980E+00    9.9295254035483769E+00
H    8.0703050731565664E+00    2.3148761700541147E+00    1.0750109953178617E+01
H    1.1741856955038674E+01    1.0457046792693783E+01    1.2099116522328901E+01
H    1.2145113035773315E+01    8.9347057518292630E+00    1.2412278015077280E+01
H    3.3373441398217216E+00    7.6121189967396665E+00    7.8531113790443170E+00
H    3.8437404997802478E+00    6.2417170006996434E+00    8.6113781620860816E+00
H    3.1132048694103216E+00    7.6196674890885818E+00    1.1070334639355735E+01
H    4.4752609606014362E+00    7.6309535586688231E+00    1.2076672515554888E+01
H    1.1595109075910592E+01    4.9845971853210251E+00    7.0588086549215348E+00
H    1.0300179646157103E+01    4.1359780470037144E+00    7.3180405599936345E+00
H    1.0066859028657783E+01    8.9451142006840918E+00    1.8647420070759173E+00
H    9.5720897423751996E+00    8.2655563920177784E+00    4.9823227537678816E-01
H    1.3189876664556699E+00    6.6902311101738601E+00    9.6502228821048472E+00
H    1.4021547291053547E+00    6.4513381197009503E+00    1.1227717775738494E+01
H    4.1225227084815854E+00    1.3300958457230425E+00    5.2660310885246071E+00
H    4.6863014012484250E+00    6.4332081832293142E-01    6.6181574626620110E+00
H    9.4703739840674395E+00    1.2334173896528020E+01    8.7409121785594035E+00
H    8.8486705805522252E+00    1.1353162651343537E+01    7.5414161566642068E+00
H    1.7346243376507626E+00    1.0023269196055081E+01    1.4521089677741145E-01
H    3.3374330937770806E+00    9.8445733321798787E+00   -2.3578650080710298E-01
H    7.0506121547580571E+00    1.1505999570463954E+01    4.1254822367652260E+00
H    6.4716144239809674E+00    9.9355117782158793E+00    3.7910213271467406E+00
H    1.3268017188784345E+00    5.8361467399930111E-01    1.1128891425287964E+01
H    2.5223736851220320E+00   -5.4515284208263548E-01    1.1460505429957307E+01
H    8.7695034601090835E+00    1.8730261306346363E+00    9.9022339814266058E-01
H    8.0909040111768356E+00    3.3982611891731745E-01    9.9167137075835932E-01
H    1.1204885569465317E+00    8.3716616986634822E+00    8.1793585849232446E+00
H    2.0883466262744230E+00    8.9941815003035099E+00    7.0139251045159723E+00
H    8.9092338083702138E+00    7.7940115337035003E+00    9.2222012190835709E+00
H    9.0650360993651322E+00    8.4492997048298530E+00    1.0614237103704337E+01
H    1.0125261936622200E+01    7.6972651388061593E+00    6.4508008035737356E+00
H    1.0499882480553813E+01    9.1992905673856082E+00    6.1555510652605818E+00
H    3.4970438967309057E+00    3.9586491104196444E+00    2.1122397671539823E+00
H    4.0583866165583116E+00    4.5845492847973972E+00    7.4299433254016056E-01
H    7.3547019310358595E+00    9.3907165959532435E+00    1.2034560547161044E+01
H    7.3341204126243680E+00    7.7711803058268094E+00    1.2054181675347328E+01
H    7.8271359122357822E+00    1.0161864557796120E+01    5.7814824441729593E+00
H    7.7120973949995948E+00    9.5091968613048206E+00    7.2843865451262326E+00
H    5.2900515914214692E+00    6.4890676352476193E+00    6.3929667695952377E+00
H    4.8679125606974241E+00    6.3175498760845121E+00    4.8312977475729451E+00
H    1.1521813479056261E+01    2.1923134294362980E+00    4.2496119720284007E+00
H    1.1222779192576715E+01    7.8413521722498725E-01    4.7830452887770614E+00
H    8.8119906724501451E+00    9.6778997188619584E+00    3.9666598404567823E+00
H    9.9342635723550146E+00    1.0814166420178907E+01    3.7816690213251283E+00
H    3.1082412934277084E+00    1.0546280663962253E+01    5.2869156842282417E+00
H    4.3132121960851606E+00    1.1455647024803703E+01    5.0610955611754473E+00
H    4.2219844129721817E-01    7.3045251091109309E+00    3.8013411241086539E+00
H    2.9766507545149845E-01    5.7724531525169569E+00    3.4527167705325574E+00
H    7.5860409191410323E+00    6.5679521129193477E+00    3.2915919983254858E+00
H    6.6758593794492631E+00    5.3831662367035191E+00    2.5200074513618684E+00
H    3.8532901491628593E+00    6.3060011184121780E+00    2.8123839800105839E+00
H    2.7953202289155996E+00    6.5486583544771060E+00    3.9537589710662240E+00
H    5.5553109353381265E+00    8.0120428669700754E+00    8.6584496783236808E+00
H    6.9993998569156357E+00    7.4780307290169237E+00    8.4104207149777217E+00
H    9.5571587465053653E+00    7.3282222377267259E-01    3.0174934412139680E+00
H    8.9237161921951298E+00    1.3434744964805778E-01    4.4076415640868492E+00
H    3.8482518861387840E+00    1.1174452569524560E+01    1.3441132624697114E+00
H    3.9626527205395816E+00    1.0964284064940998E+01    3.0102559476075630E+00
H    5.9449721154895547E+00    7.8892003227199270E+00    2.7995602859870976E+00
H    4.7651318478107187E+00    8.7229145811686450E+00    3.5906365527453095E+00
H    1.0905855590462394E+01    5.5302297929428796E+00    4.9343939976041673E+00
H    9.5033533984917522E+00    4.6732861306339704E+00    4.7170650155467184E+00
H    1.1491935736740205E+01    9.0019296606962058E+00    3.3983882088431931E+00
H    1.1959938005669121E+01    8.7851571773518913E+00    4.9401248591305915E+00
H    2.9404442925200489E+00    1.1333366123652556E+01    7.4880999173575900E+00
H    1.3993361021505102E+00    1.1120249168991567E+01    6.8063795104245637E+00
H    7.2180390176117157E+00    1.2798394447445197E-01    9.7032741476543940E+00
H    7.1646531631431767E+00    1.0771817698141854E-01    1.1367537673088259E+01
H    4.8113494103452030E+00    9.3237233228419747E+00    1.0837722105749412E+01
H    6.0817040348705360E+00    9.8061889870779915E+00    1.0186961890390531E+01
H    1.0565212968846085E+01    6.7306912582549652E+00    1.0314509384118823E+01
H    1.1239212631589329E+01    5.5937306260538273E+00    9.3143955162383172E+00
H    1.2188441116721826E+01    8.9926759698746199E+00    1.0127830375806909E+01
H    1.1415745606507874E+01    8.6329943934296534E+00    8.6365927756281931E+00
     &END COORD
     &VELOCITY
           2.4352895689780228E-04   -1.2005787686896010E-04    8.6437472843388426E-05
           5.1308833496980498E-05   -1.2157267875156596E-06   -1.4102765547915321E-05
          -1.3301557325142877E-04   -8.3933401104742246E-05   -1.7228315507893728E-04
           3.2310035322847370E-04   -2.8975142829633859E-04    2.2821840321569133E-04
           3.6814672511786118E-04   -1.6545926054246614E-04    8.2260305156725113E-05
           8.6833533914581072E-05   -1.6730042257740151E-04    2.3230467887980468E-04
          -1.9151490594554351E-04    3.6505951846868601E-05    1.7677888658433399E-04
          -2.7334923677281662E-04   -2.0364577271487140E-06   -2.5180936275499496E-04
          -2.9104530009448938E-04    1.4206649360490629E-04   -9.4225803956335573E-05
           4.9611736872665685E-05    1.9755004721342401E-04   -3.9672360394169595E-05
          -1.0339976255312613E-04    2.5535991311200737E-04   -1.7751224400562403E-04
           1.2391364052841041E-04   -5.1653553926937984E-05    2.4858753532814378E-04
           3.7151260902597036E-05    1.3910103950701992E-04   -2.6002426241706472E-04
          -9.0568511030092000E-05   -5.4222395370993727E-05    1.3572623090184424E-04
          -1.3545521085469346E-05    2.9306779465269959E-04   -1.1045795169690336E-04
           3.4361721983048509E-04    1.2593016463799772E-04    1.2983789202353723E-04
           3.1082499004452164E-05   -2.1485637728373011E-04    1.3648810971777278E-04
          -1.1186997159008963E-04    8.8655851502045751E-05    8.1590272417839260E-05
           7.2533933878393540E-05   -7.4819315188532463E-05   -3.7629488888831404E-05
          -3.9322988575876183E-05    7.7713369531385952E-05   -4.9484602597605369E-05
           1.3057379766178483E-04    3.2998964297552024E-05    2.3389866014329614E-04
          -2.3509358637262241E-04   -1.3034774433789086E-04   -7.8879784829644241E-05
           2.2663974882107104E-04    3.8940882885238395E-06   -1.0672780451653748E-04
          -4.8905242918542583E-04   -8.8291554418454423E-05    4.1273297091906871E-05
          -2.3517177964212416E-04    3.0047635156343301E-05   -4.3285500883799752E-05
           2.3871849795346220E-04    1.6484647710423713E-04   -6.5701800580376545E-06
           2.1756702607407920E-06   -3.6685136594124992E-04    1.9083731500501011E-05
           1.5263277743755236E-04   -4.5406823835250160E-05   -4.7850620499941567E-05
          -2.4366711287590075E-04   -1.5793106100422315E-04    1.4697438563686323E-04
          -4.6380813505639703E-05    6.7005925797295894E-05   -1.4094312562515813E-04
           7.0386578673131304E-05    1.4790076784328260E-04    2.3286433602925151E-04
          -1.0544099119080106E-04    9.0971533133839288E-05    1.4244526951960547E-04
           3.9446322296797433E-04    6.7569172820382479E-05    1.1084316707426578E-04
          -7.7542156657639928E-05   -1.2551164720848833E-04   -1.9898819772565064E-04
           4.0834979217840530E-04    1.4764967627285873E-04    2.0705283491389647E-05
          -2.3057413576366145E-04   -1.2071393189613884E-04    1.1534324681657549E-04
          -2.2445140569567678E-04    3.2516286912525423E-04   -1.1004648482223001E-04
          -2.5249548995225374E-05    3.9104765548145617E-04    1.6361307451907969E-04
           2.2783467789749233E-05   -6.3114575286025730E-06    4.4689206318959847E-05
          -2.2749371826779845E-04   -7.0059699220937516E-06    6.3814403817033966E-05
          -7.5853164186732969E-05    8.7002441538058806E-05   -2.6945242200122747E-04
          -1.5174645296461178E-04   -1.6488710611737515E-04   -8.8599937395546991E-05
           8.3186202725273518E-06   -5.3104079059692798E-05   -7.5058533110729483E-05
           6.6500165507202727E-05    1.1873974520038071E-04   -1.6876577035688411E-04
          -3.6861210826443587E-04   -4.4905138593374829E-04   -7.2135058686563502E-05
          -1.2506938727243776E-04   -2.1650974605731102E-04    1.4245782354476020E-05
           1.5305853253062783E-04    7.8061367149871876E-05   -2.6041680607610953E-04
           1.1603170847564580E-04    1.3154101218173156E-04    1.9734889966833950E-05
          -2.7566410321090534E-05    4.9188391052397404E-05   -8.2861079404434218E-05
           1.7539773471408009E-04   -1.0194492078811969E-04   -1.5958541295252340E-05
           9.1160346890004349E-06   -1.7067102899810620E-04   -1.2704807040660098E-04
           2.0533708583824828E-04   -1.8520865666324181E-04    1.5572511017044035E-04
          -9.5059251454720543E-05    3.8900119903824328E-04    6.8133144196704605E-05
          -3.3406382324155460E-05    1.1411499707555234E-04    4.8377796709803722E-05
          -3.2166174218043278E-04   -6.7429210558169595E-05   -3.3439454031895203E-04
          -1.0567197804902741E-04   -1.8604152118392603E-04   -4.1177966912004038E-05
           3.0232555384631136E-04    4.4482755791829666E-08   -4.0954738013732091E-05
           3.4127138907877764E-04   -7.5686724691571597E-05    3.1369710523447341E-04
           4.8645208047664804E-06    9.5406277061845906E-05    4.0430203565705373E-05
          -7.3487234920618992E-05   -1.1019701265495012E-04   -1.6988167751782427E-04
          -9.5116294348496696E-05    1.5929238980013597E-04    1.0050636564724525E-04
           2.9577452115333908E-04   -2.0295534619216979E-04   -3.8717435445916594E-06
           3.3427097552614997E-05    2.9886113904231650E-05    2.3028601056782999E-05
           2.1249634917601789E-04   -1.8765388695179475E-04   -7.1382764687537008E-05
          -4.5134200614032970E-04   -3.6461998036089687E-05   -6.2014780459265632E-04
           9.6717121607302900E-04   -4.1496771604845965E-04   -1.4275705698040000E-03
           7.4612048411006125E-04    7.4926340799374731E-04   -2.8983563265975569E-05
           1.1950822730789545E-03   -2.4938163772289610E-04   -4.6955699926692511E-04
           3.3437263773372687E-04   -4.4066319731197437E-04   -4.5337897815357056E-04
           1.1011431662360717E-03    2.9139917327012705E-04   -1.2198962736655794E-03
           2.2385249970932576E-04    1.5948609342865234E-03   -3.7881054219807039E-04
           1.0079326383144343E-03   -6.8228660473630296E-04    2.6177285017328606E-04
          -7.1676772166032648E-05    2.5746464898096430E-05   -1.3520750351126500E-04
          -6.5359743159806394E-04   -1.1729133117587047E-04    1.7260386305708179E-04
          -6.3946645532067981E-04   -9.4886603545231440E-04   -2.5714998908717688E-04
          -3.9131100882582807E-04   -2.4416892644816619E-04   -5.0810873229608473E-04
           2.8831271511836349E-04   -2.0448067102051496E-03   -7.4372526402026560E-04
           3.8720872053988687E-04   -1.5659038684764193E-03   -8.1922109566929559E-04
           6.6131192185272690E-04   -2.0572267226605712E-04   -4.7008211594056198E-04
          -4.8840437589942539E-05   -1.4279618006780770E-03    8.4954144524064512E-04
          -5.1075273925348932E-04    9.0001937672830703E-04   -4.3720385364805859E-04
           2.7825781517076473E-04    1.1169167719103244E-04   -5.6938528402066750E-04
          -1.5084824930747134E-03    7.3769946902359196E-04   -6.1844046662122675E-06
           2.4538874923053512E-04    9.7494646952702574E-04   -4.8314180616270693E-04
          -8.5480359470101636E-05    5.9478416171887961E-04   -4.9304901634522144E-05
          -6.8266994505486564E-04   -5.5575566575082936E-04    7.1333097089177656E-04
           4.9456847774206165E-05    6.5025459335087534E-04   -7.7972174813141103E-04
           7.9382955321602404E-05   -7.8198264146653416E-04    7.2595378947425896E-04
           2.5852131569638153E-04    7.5469391168472307E-05   -5.8533339039054373E-04
           3.2409077359335406E-04   -2.7317136237385499E-04    2.5330976797278238E-04
          -1.0540506164922023E-03    5.0562455740765701E-04    7.1097587663654946E-04
           8.0546734662948578E-04   -1.4475933298834865E-04   -9.1148946840069836E-04
          -9.4447429202375679E-05   -1.7442565229273100E-04   -6.6682127829199584E-04
          -5.9604062243223037E-04    2.1026825326387133E-03   -1.6362959701357835E-04
          -5.9396099203112645E-04   -1.8326838202803935E-04   -3.0896384759936785E-04
          -1.1277145426091028E-04   -1.9670835968995580E-04    5.4210691562990142E-04
           3.7332633879138931E-04   -2.2247370329832997E-04   -3.6283756805376486E-04
          -5.2077706489122709E-04    8.9077612568271361E-04   -5.6184164068696528E-04
           6.7815751256092586E-04    1.3444514439630911E-04   -5.4935154403485580E-04
          -5.1310271398393988E-05   -7.8829554703911057E-04    5.3276039723616937E-04
          -8.5130409006138385E-05   -4.3984632745299834E-04   -1.5059866460094887E-03
           1.9680255628165612E-04    7.0602917217279799E-04    7.9813152563517188E-04
          -3.1120886791613143E-04    7.4703220924939788E-04    4.9930464952313894E-04
          -7.7046114692487717E-04    8.8060124138536835E-04    4.4946245364687378E-04
           4.7827412322270596E-04    2.0967831427661990E-04    9.9045583190730596E-04
           2.7338768314291186E-04   -1.2911505093278938E-05    2.0308294566630260E-03
           2.2268144216443242E-04    4.5671096290410068E-04    2.0294438627028815E-03
          -1.3963762680762432E-04    6.4107067981961942E-04    2.3590679284364396E-04
           1.0627265607026535E-03   -8.1441755638359957E-04    2.5570925291527777E-04
           5.5752905183418405E-04   -2.4904265433502767E-04    1.0092943120091483E-03
           8.2308722579896938E-04    4.6317561234313987E-04    1.0881531478780539E-03
           1.0550329244345157E-03    1.4718671462271712E-03   -1.9479088051825355E-04
          -5.9234975152992015E-04    1.4349114685476604E-03   -1.0527038082662609E-03
           1.6932613075113325E-04   -2.7170861877296229E-04   -1.8216829138066449E-04
          -3.9770868215940316E-04    1.1372230153315550E-03    1.5121550510561874E-04
          -2.1017769408675550E-04    2.5917097130943298E-04    1.2964206860143822E-03
           5.7060427920706269E-04    4.3671541265378984E-04   -1.4660693893239318E-04
           2.7365554736409950E-04   -1.1051173482257333E-04   -2.7041350586150942E-04
          -1.5490310923861560E-03   -4.8289839359980856E-04    1.0665735172160707E-03
           1.1224150504737831E-04    6.1359106771642473E-04   -2.4338314528332702E-04
          -8.4574512527951025E-04    2.7257287515104913E-04    4.4909119714611035E-04
          -9.0308194375596728E-04    4.6440059127987989E-04   -2.6541928311912913E-04
          -1.1903653561453063E-03    3.2337940588779456E-05   -5.5038916003747744E-05
           2.6854808173584527E-04   -1.1020380157713446E-03    6.7777744830725868E-04
           3.1913849413760459E-04    1.0174460215412252E-03   -3.0838829165507535E-04
          -4.2287091606986921E-04    4.3945863777091756E-04   -8.2903290423475646E-04
           4.5796851366970324E-04   -7.2851844241681558E-04   -1.9906514358038692E-04
          -2.5421516948664555E-04   -2.9861670766255803E-04    4.0880986581291696E-04
          -1.7312719899231462E-04    6.5870510361106395E-04    1.2668576802594127E-03
           2.5583564443878038E-04   -7.9678978526986156E-07    1.1677936184234154E-03
          -1.5491526837804493E-05    1.3159291771842800E-03    1.0400222974254207E-03
           8.9575808404813301E-04   -3.3563207832113602E-04    5.8434047540715953E-04
           1.0485189083686915E-03    1.4354236887267329E-04   -1.3233266899004173E-03
          -7.1283458300095727E-04    3.7647186490129356E-04   -7.8163815423180774E-04
          -5.0191624994291537E-05    2.0915573577556977E-05   -3.3662881984332062E-04