 # Version information for this restart file 
 # current date 2023-07-28 11:52:19.370
 # current working dir /mnt/lustre/indy2lfs/work/tc047/tc047/mrnuff-cirrus/cp2k/nuff-benchmarks/H2O-64-16node
 # Program compiled at                              Thu Jun 30 12:29:55 BST 2022
 # Program compiled on                                             cirrus-login3
 # Program compiled for                                             Cirrus-intel
 # Source code revision number                                       git:e635599
 &GLOBAL
   PRINT_LEVEL  LOW
   PROJECT_NAME H2O-64
   RUN_TYPE  MD
 &END GLOBAL
 &MOTION
   &MD
     ENSEMBLE  NVE
     STEPS  10
     TIMESTEP     4.9999999999999994E-01
     STEP_START_VAL  10
     TIME_START_VAL     4.9999999999999982E+00
     ECONS_START_VAL    -1.1007588181106796E+03
     TEMPERATURE     3.0000000000000000E+02
     &AVERAGES  T
       &RESTART_AVERAGES
         ITIMES_START  1
         AVECPU     4.8753300182521340E+00
         AVEHUGONIOT     0.0000000000000000E+00
         AVETEMP_BARO     0.0000000000000000E+00
         AVEPOT    -1.1010668160173025E+03
         AVEKIN     3.0070034549317548E-01
         AVETEMP     3.3142598855986415E+02
         AVEKIN_QM     0.0000000000000000E+00
         AVETEMP_QM     0.0000000000000000E+00
         AVEVOL     1.2909542132085598E+04
         AVECELL_A     2.3458682268415796E+01
         AVECELL_B     2.3458682268415796E+01
         AVECELL_C     2.3458682268415796E+01
         AVEALPHA     9.0000000000000000E+01
         AVEBETA     9.0000000000000000E+01
         AVEGAMMA     9.0000000000000000E+01
         AVE_ECONS    -1.0896371855869708E+01
         AVE_PRESS     0.0000000000000000E+00
         AVE_PXX     0.0000000000000000E+00
       &END RESTART_AVERAGES
     &END AVERAGES
   &END MD
 &END MOTION
 &FORCE_EVAL
   METHOD  QS
   &DFT
     BASIS_SET_FILE_NAME GTH_BASIS_SETS
     POTENTIAL_FILE_NAME POTENTIAL
     &SCF
       SCF_GUESS  ATOMIC
       &OT  T
         MINIMIZER  DIIS
       &END OT
       &PRINT
         &RESTART  OFF
         &END RESTART
       &END PRINT
     &END SCF
     &QS
       EPS_DEFAULT     9.9999999999999998E-13
       EXTRAPOLATION  PS
       EXTRAPOLATION_ORDER  3
     &END QS
     &MGRID
       CUTOFF     2.8000000000000000E+02
       REL_CUTOFF     3.0000000000000000E+01
     &END MGRID
     &XC
       DENSITY_CUTOFF     1.0000000000000000E-10
       GRADIENT_CUTOFF     1.0000000000000000E-10
       TAU_CUTOFF     1.0000000000000000E-10
       &XC_FUNCTIONAL  NO_SHORTCUT
         &PADE  T
         &END PADE
       &END XC_FUNCTIONAL
     &END XC
   &END DFT
   &SUBSYS
     &CELL
       A     1.2413800000000002E+01    0.0000000000000000E+00    0.0000000000000000E+00
       B     0.0000000000000000E+00    1.2413800000000002E+01    0.0000000000000000E+00
       C     0.0000000000000000E+00    0.0000000000000000E+00    1.2413800000000002E+01
       MULTIPLE_UNIT_CELL  1 1 1
     &END CELL
     &COORD
O    1.2265692089483919E+01    1.3554390129941654E+00    1.0875425741210394E+01
O    6.4523125712782692E+00    3.7059030017229060E+00    8.6472703373292941E+00
O    7.7679434805438735E-02    2.1684363409616552E+00    8.2608499727948654E+00
O    1.2086328917682293E+01    2.6383236471456213E+00    2.1708319631147712E+00
O    1.2290563434792452E+01    4.1705987030844245E+00    1.2102197401500643E+01
O    7.2035546534509027E+00    9.4146440982933843E-01    4.7596753308530140E+00
O    8.3332259924710979E+00    7.2077559238208115E+00    4.6827252174468477E+00
O    1.2331820354972921E+01    1.1521085584601162E+01    8.0815267568455322E+00
O    3.2742305248729533E+00    4.4591006237003716E+00    9.1745323461747184E+00
O    2.8601657947011478E+00    3.7871321994318161E+00    6.5410904120533608E+00
O    1.3797135980521562E+00    6.3917883108530029E+00    5.6509499049341183E-01
O    1.8717778176468629E+00    8.6859327223318541E+00    2.0908475002934752E+00
O    3.7724126920716290E+00    1.2107291686118607E+01    8.6205990989002714E+00
O    6.4253612010425396E+00    3.6667844669334770E+00    2.7875787966086087E+00
O    1.9996801569167406E+00    1.8525818618605907E+00    4.8671305057776335E+00
O    8.2870264289442606E+00    2.4221945186201754E+00    6.9417301194040837E+00
O    5.7524965525743337E+00    3.3354063225406856E+00    1.2486444073906737E+01
O    1.1313041873264034E+01    5.6568394091369996E+00    2.2481538681309590E+00
O    4.2889086332744322E+00    2.1146774663677288E+00    1.0586400462686882E+01
O    5.3988008779579086E+00    3.3584215761665908E+00    5.4859980676066016E+00
O    6.5093803283315701E+00    1.1870555907452681E+01    7.1448610258288225E-01
O    3.2525927590516743E+00    2.3434818290721182E+00    2.4132514479858660E+00
O    8.0086796499282578E+00    6.3565335203087496E+00    7.4977752039613632E+00
O    5.9288585788257437E+00    6.5082801666042016E+00    1.2195796701642468E+01
O    1.0610385294795654E+01    1.1861264429738654E+01    1.2200574174939938E+01
O    9.3403690756568629E+00    3.6890996107164060E+00    3.5273423653475393E+00
O    1.1111278086577550E+00    5.7890355206451041E+00    6.6473009501981544E+00
O    8.0194995343334980E+00    3.3269739508473855E+00    1.0869758841489816E+01
O    1.2376084676796200E+01    9.6748049821028967E+00    1.1772442429127494E+01
O    4.2098962719503179E+00    7.0914037241392212E+00    8.1403049780540773E+00
O    3.7839656891276241E+00    8.2290488153630541E+00    1.1585038748792604E+01
O    1.1076296436002693E+01    4.5429033328726103E+00    7.8327522122957332E+00
O    1.0435269965490431E+01    8.4217711221836442E+00    1.0328413587523431E+00
O    1.9828015281272449E+00    6.4005825276163879E+00    1.0353823655978536E+01
O    4.7041682767468815E+00    5.6227133611203284E-01    5.6097237226912320E+00
O    8.7178718108893136E+00    1.2242115811187309E+01    8.0976567639231511E+00
O    2.6327341025095392E+00    1.0520521873272715E+01    8.2905623926688946E-02
O    7.2399931187466358E+00    1.0511642196931664E+01    4.2432664330030470E+00
O    2.2807064781619486E+00    2.7612056427341614E-01    1.0807250569989241E+01
O    8.8632061138830256E+00    9.4642072500209995E-01    1.3400856795970690E+00
O    1.9443088048744153E+00    8.0893935868695444E+00    7.5355059867712297E+00
O    9.6598248299588096E+00    8.0355046451626162E+00    9.8565400345210890E+00
O    1.0903669851584347E+01    8.3307153998975974E+00    6.4773146916028361E+00
O    3.5124567442237518E+00    4.8693650210821779E+00    1.5451764009707762E+00
O    7.9775830453592169E+00    8.6026723333304975E+00    1.2050849513770332E+01
O    8.3694035479504727E+00    1.0019371052443072E+01    6.6836141760228767E+00
O    5.6546743218576605E+00    6.0810664230945397E+00    5.5283846573827331E+00
O    1.1742547847645350E+01    1.6241840639033673E+00    5.0859575162073192E+00
O    9.7585719615142779E+00    9.8110347715519453E+00    3.5364867774941073E+00
O    3.9627876574400265E+00    1.0548914651573902E+01    4.6848634346388138E+00
O    9.0110847254970838E-01    6.3699180308687282E+00    4.0614677068442289E+00
O    6.8825857356121745E+00    6.4084220847945668E+00    2.5046902581440333E+00
O    3.8180799995398531E+00    6.6391276583280812E+00    3.7786506828597379E+00
O    6.5639457974899589E+00    8.3081696931558042E+00    8.8142644496196638E+00
O    9.7792965800925202E+00    1.3440562766330993E-01    3.8518038249085240E+00
O    4.1040770115658374E+00    1.1645978558721330E+01    2.2167390496173707E+00
O    5.3225394392112921E+00    8.7370879819811975E+00    2.7520568939068770E+00
O    1.0008064086737264E+01    5.3735087324373723E+00    5.3757728940149825E+00
O    1.2260297782908802E+01    8.6464340629358514E+00    3.9709777917871314E+00
O    2.3431345497116713E+00    1.0747243885368743E+01    6.8128217267251960E+00
O    7.0016612916653242E+00    6.6240597665990808E-01    1.0534341561687876E+01
O    5.1725047982212748E+00    1.0218495319125106E+01    1.0357205957141433E+01
O    1.1186316801594369E+01    5.8851524495734422E+00    1.0299193203865888E+01
O    1.2277001782589764E+01    8.9569716794260383E+00    9.0707884188585943E+00
H    1.2357840653884219E+01    2.3335995753226384E+00    1.1187202568866518E+01
H    1.1946181003855411E+01    1.5338243304140529E+00    9.8820686313883126E+00
H    5.5871540557002355E+00    3.4492983737421303E+00    9.0442905792549020E+00
H    6.8930493554892740E+00    3.0239782285792454E+00    7.9852283560214623E+00
H   -1.4374297116893495E-01    1.5098214846064093E+00    7.5263531243321147E+00
H   -3.8865416711510220E-01    3.0530974755008051E+00    7.9298823362647237E+00
H    1.2176354233153864E+01    2.9746344065094315E+00    1.1924463434421064E+00
H    1.2991627169715347E+01    2.9143170210547353E+00    2.5155346727351127E+00
H    1.1517585159652686E+01    4.3255122446520344E+00    1.1434691026735692E+01
H    1.2784953658522264E+01    5.0635466714144739E+00    1.2040055000818613E+01
H    6.9671401310526422E+00    1.7387343976977545E+00    4.1849967664905945E+00
H    6.2296009063342570E+00    6.8946782722663025E-01    5.1579113656949360E+00
H    7.7273594948729611E+00    7.2216808380989281E+00    5.4888761780281907E+00
H    9.1691701765465012E+00    6.6296086344981147E+00    4.9460727574881824E+00
H    1.2846883768257328E+01    1.1781070688349649E+01    8.9005192602390526E+00
H    1.1983330930254711E+01    1.0563456761596123E+01    8.3168613221532741E+00
H    3.5249173108185294E+00    3.8402074967245658E+00    9.9510006399903048E+00
H    2.4297337650182032E+00    4.9330989925199464E+00    9.5245628999127980E+00
H    2.1731627523307138E+00    4.5583640086450661E+00    6.3013579985290669E+00
H    2.8563500932215309E+00    3.8576048156117939E+00    7.5841394106044397E+00
H    1.1402120515027538E+00    7.1967347480534629E+00    1.1594244541636567E+00
H    2.2451038169253201E+00    6.0044688738682730E+00    1.0028737587407932E+00
H    2.8159635337993429E+00    8.9701748198800466E+00    2.2995199891603049E+00
H    1.3289544665063080E+00    8.9939926467774836E+00    2.8983257079440472E+00
H    4.4550218369061145E+00    1.1540339425003760E+01    9.1644203320319821E+00
H    3.0505860859908553E+00    1.2474023132570849E+01    9.2862357274705012E+00
H    5.8591510063953818E+00    3.4580809397757166E+00    3.6616773633305906E+00
H    5.8328342793244801E+00    3.4003555439705826E+00    1.9823495664217803E+00
H    9.5573469725972648E-01    1.6451477306435458E+00    4.8407733836338611E+00
H    2.2282991647307764E+00    2.4813299829886373E+00    5.6872650230017561E+00
H    8.4431290012361870E+00    1.6050270153559973E+00    7.5442513472484407E+00
H    8.0660702671733553E+00    2.0137128293831781E+00    6.0338191030230597E+00
H    5.2179579256215680E+00    2.8944435585801584E+00    1.1676379626020475E+01
H    6.6808372388707218E+00    3.4137338960719159E+00    1.1974227321954999E+01
H    1.0787628803146047E+01    6.5181395670632396E+00    2.0987991922634208E+00
H    1.1679773573101647E+01    5.3602522151477610E+00    1.3423877172509686E+00
H    3.4353203684192941E+00    1.5422281194344460E+00    1.0899348788955741E+01
H    4.8360131199372196E+00    1.4266306188292699E+00    1.0089887937303217E+01
H    4.3860802582003933E+00    3.3639520802574991E+00    5.6883523933776159E+00
H    5.6851424648155717E+00    4.3694414775812511E+00    5.5473743673648794E+00
H    6.2905172776224259E+00    1.1824099733748033E+01    1.7188529435632511E+00
H    5.6254822935021851E+00    1.2118652077614875E+01    3.2827489265270887E-01
H    3.5448338646078348E+00    1.3905272139791638E+00    2.1815170599107931E+00
H    2.6082617908451864E+00    2.2011793681999663E+00    3.2448585926834310E+00
H    7.1214310944130359E+00    5.8746986475788008E+00    7.5240902705257815E+00
H    8.6555160452206259E+00    5.7349833608750940E+00    7.0296645633631956E+00
H    6.0004465275653400E+00    5.6511979030142916E+00    1.1673025686979933E+01
H    6.2576534574143583E+00    6.3249880564333738E+00    1.3168261180251944E+01
H    1.1110393485508732E+01    1.2636559250997554E+01    1.1695509562619550E+01
H    1.0264574453192971E+01    1.2297166054266917E+01    1.3044673119309723E+01
H    9.9063257583767328E+00    4.0523254539288223E+00    2.7328096710818728E+00
H    8.5320976562309081E+00    3.4662435851513806E+00    2.9418258347989670E+00
H    1.4549325922368714E+00    6.6684406032653651E+00    7.1063381287424932E+00
H    1.0013233336713916E+00    6.1758231958592136E+00    5.6553319488927212E+00
H    7.9834584102605755E+00    3.6965662970356434E+00    9.9295362401113110E+00
H    8.0702893407898877E+00    2.3148727995364879E+00    1.0750118168091056E+01
H    1.1741851247338214E+01    1.0457041172522651E+01    1.2099135806994749E+01
H    1.2145140467199562E+01    8.9346530857759454E+00    1.2412210742862895E+01
H    3.3373535314762806E+00    7.6121200308660617E+00    7.8531045761946405E+00
H    3.8438071109322984E+00    6.2417161568832391E+00    8.6114175129818751E+00
H    3.1132077807638829E+00    7.6196920981176186E+00    1.1070308623801184E+01
H    4.4752997918978377E+00    7.6309327249731327E+00    1.2076616644959403E+01
H    1.1595109347939269E+01    4.9846383472196019E+00    7.0588447442735784E+00
H    1.0300198428129457E+01    4.1359917521742977E+00    7.3179795841152622E+00
H    1.0066803629045330E+01    8.9449101926879262E+00    1.8648409458420234E+00
H    9.5721275817985205E+00    8.2654871620119685E+00    4.9820470823289198E-01
H    1.3188214514390482E+00    6.6901027276297951E+00    9.6503048603165666E+00
H    1.4021624816971456E+00    6.4512365186882397E+00    1.1227722789147782E+01
H    4.1225373888745009E+00    1.3301382656584719E+00    5.2661059713500551E+00
H    4.6863100279912500E+00    6.4323888154000275E-01    6.6181558656211381E+00
H    9.4703533710561736E+00    1.2334177792059489E+01    8.7409520154266414E+00
H    8.8486737260985731E+00    1.1353175343936076E+01    7.5414016813719069E+00
H    1.7346635260617362E+00    1.0023247752456342E+01    1.4531246290880567E-01
H    3.3374323737188392E+00    9.8445600332825034E+00   -2.3573946363448470E-01
H    7.0505799823405768E+00    1.1506005604268280E+01    4.1255571139608032E+00
H    6.4716019298296557E+00    9.9354966266940483E+00    3.7910911532783254E+00
H    1.3268589592359377E+00    5.8377393430018043E-01    1.1128929736799524E+01
H    2.5223619020802337E+00   -5.4513600115488936E-01    1.1460522258349924E+01
H    8.7695024945573063E+00    1.8730405160138459E+00    9.9029984538940674E-01
H    8.0908940305260515E+00    3.3984351975176769E-01    9.9164118000234069E-01
H    1.1203607709244223E+00    8.3716512006958244E+00    8.1792323344824602E+00
H    2.0883187077766876E+00    8.9941496096236477E+00    7.0138877035395000E+00
H    8.9092455661174732E+00    7.7938840102069840E+00    9.2222118549476715E+00
H    9.0650442925878441E+00    8.4492400512123069E+00    1.0614283870981904E+01
H    1.0125293357175433E+01    7.6972294325261483E+00    6.4507709233863837E+00
H    1.0499855152537698E+01    9.1992705817145826E+00    6.1555311709824334E+00
H    3.4971231604230089E+00    3.9586904012079160E+00    2.1122844778209071E+00
H    4.0584146620666361E+00    4.5845739999392929E+00    7.4299547661127874E-01
H    7.3547300979711885E+00    9.3907717765819818E+00    1.2034662471095666E+01
H    7.3341917810684016E+00    7.7711469163737474E+00    1.2054219542751236E+01
H    7.8271815569080889E+00    1.0161811172290143E+01    5.7814619639483045E+00
H    7.7120113817888560E+00    9.5092512996363290E+00    7.2843726304681056E+00
H    5.2899463871881149E+00    6.4889429596076482E+00    6.3929757321027578E+00
H    4.8678252868835141E+00    6.3175211180858950E+00    4.8313586361439613E+00
H    1.1521862541305721E+01    2.1923283626800738E+00    4.2496614328179581E+00
H    1.1222791846957614E+01    7.8414795598397136E-01    4.7829538343866407E+00
H    8.8119942350215705E+00    9.6778779613702604E+00    3.9666686831538054E+00
H    9.9342844970877273E+00    1.0814156988790645E+01    3.7816372858607044E+00
H    3.1082289528958742E+00    1.0546326407174284E+01    5.2868803913858375E+00
H    4.3132584907106306E+00    1.1455620653057656E+01    5.0610780320733930E+00
H    4.2220406784284187E-01    7.3045102192443991E+00    3.8013135649937739E+00
H    2.9772343931242268E-01    5.7724401932040621E+00    3.4526995513599927E+00
H    7.5860591209726005E+00    6.5678847601546861E+00    3.2915836809345707E+00
H    6.6758385347275224E+00    5.3831754309178601E+00    2.5200133494033432E+00
H    3.8532534172200972E+00    6.3060046348702024E+00    2.8123783749704052E+00
H    2.7953246440735313E+00    6.5485847389780885E+00    3.9537741358610781E+00
H    5.5553176437610858E+00    8.0120599991628723E+00    8.6583941104717361E+00
H    6.9993930795501020E+00    7.4780238970677679E+00    8.4104344163931444E+00
H    9.5571588990612195E+00    7.3280446145796652E-01    3.0174818797269665E+00
H    8.9237164310789634E+00    1.3437510586189758E-01    4.4076447871974747E+00
H    3.8482457315675553E+00    1.1174438455170874E+01    1.3441470566657880E+00
H    3.9626056228580855E+00    1.0964278466897538E+01    3.0102551897949046E+00
H    5.9449661422368418E+00    7.8891857853084479E+00    2.7995741535957590E+00
H    4.7652120121297408E+00    8.7229381074893375E+00    3.5906717261655388E+00
H    1.0905815782848620E+01    5.5302201800701081E+00    4.9342869455826568E+00
H    9.5033245323306605E+00    4.6732708376729271E+00    4.7171193166489003E+00
H    1.1491942104116719E+01    9.0018887406787513E+00    3.3983649908371025E+00
H    1.1959903629039543E+01    8.7851547644288086E+00    4.9401026898658724E+00
H    2.9404439844275809E+00    1.1333326721638459E+01    7.4881123877729081E+00
H    1.3993518978819242E+00    1.1120275827042750E+01    6.8063456551227812E+00
H    7.2181951384378875E+00    1.2809608485376336E-01    9.7032371258679024E+00
H    7.1648660378588689E+00    1.0772078745117947E-01    1.1367500988399645E+01
H    4.8113412051055739E+00    9.3237474535605660E+00    1.0837702423611647E+01
H    6.0816481698035334E+00    9.8060697913095733E+00    1.0186927365163349E+01
H    1.0565212262638790E+01    6.7306908548562321E+00    1.0314443980527489E+01
H    1.1239043366237768E+01    5.5938377372087080E+00    9.3143651163970826E+00
H    1.2188456954751443E+01    8.9927460848967300E+00    1.0127821223536767E+01
H    1.1415764242458689E+01    8.6329965781017179E+00    8.6365688433567520E+00
     &END COORD
     &VELOCITY
           2.4353373553198245E-04   -1.2006097602687579E-04    8.6380096426652548E-05
           5.1311970178510388E-05   -1.2708266208449833E-06   -1.4048482607050258E-05
          -1.3298767757299049E-04   -8.3910828185832415E-05   -1.7227772179688764E-04
           3.2311111387327822E-04   -2.8974228281232581E-04    2.2815855771110772E-04
           3.6807112799874553E-04   -1.6540691872106583E-04    8.2168021720840435E-05
           8.6843810079692422E-05   -1.6733145785093523E-04    2.3233906169774367E-04
          -1.9144732815441277E-04    3.6490306372450756E-05    1.7692428816540033E-04
          -2.7339212137058487E-04   -2.0181330323825393E-06   -2.5185283188649339E-04
          -2.9114797156462705E-04    1.4202524657078953E-04   -9.4207613534100451E-05
           4.9604684382546682E-05    1.9764986075542499E-04   -3.9675655899960086E-05
          -1.0338266296067897E-04    2.5533554886980782E-04   -1.7753567723120719E-04
           1.2393271803251226E-04   -5.1522817965035215E-05    2.4869105054658406E-04
           3.7171385611995745E-05    1.3912087635299460E-04   -2.6001104941394553E-04
          -9.0584380442755463E-05   -5.4256969624903430E-05    1.3571849163723321E-04
          -1.3532069033887282E-05    2.9312535024606477E-04   -1.1035216194484332E-04
           3.4365663856445589E-04    1.2592891247521383E-04    1.2984947778479220E-04
           3.1061310688278455E-05   -2.1491061234685965E-04    1.3642911352152685E-04
          -1.1197980598622431E-04    8.8708519144008793E-05    8.1551359030085507E-05
           7.2553977149817191E-05   -7.4882564048124700E-05   -3.7593240427276745E-05
          -3.9311008770447642E-05    7.7794970773345968E-05   -4.9503853884220476E-05
           1.3050850736080543E-04    3.2997372840497865E-05    2.3384938882114681E-04
          -2.3506710107521394E-04   -1.3038351983420379E-04   -7.8872779761717597E-05
           2.2656471395514442E-04    3.8984618364954186E-06   -1.0674489559600539E-04
          -4.8910812396607453E-04   -8.8250996373521846E-05    4.1168871693683953E-05
          -2.3516505104402203E-04    3.0141522875469018E-05   -4.3307021529153166E-05
           2.3874077440412083E-04    1.6479626533078269E-04   -6.5961174413898472E-06
           2.1570400435724625E-06   -3.6687604474251024E-04    1.9056449024460343E-05
           1.5263290745723881E-04   -4.5423683353115991E-05   -4.7828240980580309E-05
          -2.4361660474261202E-04   -1.5799538490282269E-04    1.4701044899622273E-04
          -4.6332302279683729E-05    6.6958418740936828E-05   -1.4093723621122438E-04
           7.0402526348580031E-05    1.4787938508822456E-04    2.3294646136708894E-04
          -1.0541845847344097E-04    9.0959878373216035E-05    1.4239486316473536E-04
           3.9447066267370460E-04    6.7697585287828591E-05    1.1078543440047791E-04
          -7.7642050398098739E-05   -1.2536442818340666E-04   -1.9896428319756608E-04
           4.0834731830718810E-04    1.4767279244958285E-04    2.0697580192143260E-05
          -2.3059415805049024E-04   -1.2069261926272765E-04    1.1528847271831252E-04
          -2.2453224222844379E-04    3.2508315209712389E-04   -1.1011175869283684E-04
          -2.5223464560704642E-05    3.9102949516857789E-04    1.6353834116280329E-04
           2.2717843314705414E-05   -6.2765751647429414E-06    4.4671040027426638E-05
          -2.2749659830632857E-04   -6.9576305505134478E-06    6.3788388337426093E-05
          -7.5841302718732481E-05    8.7087799011748463E-05   -2.6939094015314148E-04
          -1.5166914071936105E-04   -1.6482446184715659E-04   -8.8619423401004374E-05
           8.3255811680285567E-06   -5.3065384632017718E-05   -7.5044278375093357E-05
           6.6403553282887680E-05    1.1865592146480131E-04   -1.6876922794169008E-04
          -3.6854176965798118E-04   -4.4916679521466308E-04   -7.2212204724517360E-05
          -1.2514834926169953E-04   -2.1658705550514640E-04    1.4279407557505800E-05
           1.5301292386491348E-04    7.8212466736629261E-05   -2.6042789655720037E-04
           1.1597437780921745E-04    1.3153166326503539E-04    1.9714489346192475E-05
          -2.7586288468615944E-05    4.9135802991409961E-05   -8.2847135185233370E-05
           1.7533037837010710E-04   -1.0200057778828984E-04   -1.5955910872900041E-05
           9.1305293490447264E-06   -1.7063363096287055E-04   -1.2704533408542182E-04
           2.0532414019914201E-04   -1.8523108330916735E-04    1.5576953260039461E-04
          -9.5082342048402482E-05    3.8898283928854384E-04    6.8143354602000379E-05
          -3.3468517683194657E-05    1.1413973594118958E-04    4.8372670606264127E-05
          -3.2167308794384857E-04   -6.7373694363196762E-05   -3.3440505798238774E-04
          -1.0565699375442188E-04   -1.8612919959602785E-04   -4.1185047195546719E-05
           3.0227443463981990E-04   -1.9476821987299984E-08   -4.0898192669935284E-05
           3.4132859751052230E-04   -7.5666618757258596E-05    3.1369871723647275E-04
           4.8774504481094758E-06    9.5432986765755021E-05    4.0463993791232733E-05
          -7.3525642131466460E-05   -1.1023344657355450E-04   -1.6990266178546615E-04
          -9.5305467323723023E-05    1.5924492797703078E-04    1.0050784054815997E-04
           2.9577992716526441E-04   -2.0302338272622261E-04   -3.8000268530826399E-06
           3.3426751498439203E-05    2.9960856876237958E-05    2.2957098675125841E-05
           2.1247046209893274E-04   -1.8773508816612389E-04   -7.1323934924057979E-05
          -4.5158839413680344E-04   -3.6143060076731929E-05   -6.1976176341299030E-04
           9.6706711087342389E-04   -4.1494673938151589E-04   -1.4270244721987409E-03
           7.4657709738208135E-04    7.4979183340986042E-04   -2.9716006634423748E-05
           1.1944835029916866E-03   -2.4887952169701461E-04   -4.6965328168781782E-04
           3.3415678177878158E-04   -4.4057529885321731E-04   -4.5347033644283755E-04
           1.1012796130028238E-03    2.9083917955335362E-04   -1.2194190254956063E-03
           2.2415342342297636E-04    1.5937251548410029E-03   -3.7781211910851292E-04
           1.0073465758481013E-03   -6.8157982680799075E-04    2.6183752026538032E-04
          -6.9769183615934580E-05    2.4841597113629485E-05   -1.3349984297427559E-04
          -6.5395783736297934E-04   -1.1729839032967589E-04    1.7209949837393903E-04
          -6.3912725034417277E-04   -9.4833908163075823E-04   -2.5753189732876872E-04
          -3.9187509729231350E-04   -2.4417797176560840E-04   -5.0822500047696391E-04
           2.8904185307424457E-04   -2.0455475311453044E-03   -7.4488003304254988E-04
           3.8533435940279673E-04   -1.5649598638870206E-03   -8.1999331589871851E-04
           6.6163782210562280E-04   -2.0530137992589358E-04   -4.7022778536163362E-04
          -4.8571775212180642E-05   -1.4283455067349727E-03    8.4970777264564983E-04
          -5.1040502071843068E-04    9.0124041076267559E-04   -4.3717828656392231E-04
           2.7962496774113957E-04    1.1112791910183459E-04   -5.6980553870354081E-04
          -1.5080494509627138E-03    7.3672779723508422E-04   -5.7541529119312990E-06
           2.4475429621120744E-04    9.7437756642842696E-04   -4.8339679942566020E-04
          -8.5981680084644513E-05    5.9512037268456906E-04   -4.8949501755640246E-05
          -6.8266467564203541E-04   -5.5567223333951937E-04    7.1350489602224208E-04
           4.8033714497527745E-05    6.5011279413237227E-04   -7.7943973949921288E-04
           8.0491911095743025E-05   -7.8343749753233131E-04    7.2435736498818910E-04
           2.5839724570828255E-04    7.5578985191056746E-05   -5.8507007758031580E-04
           3.2468632065242868E-04   -2.7324024724480124E-04    2.5249479694756455E-04
          -1.0539062839283093E-03    5.0616494373784951E-04    7.1049452486043646E-04
           8.0541579376907800E-04   -1.4428395473486391E-04   -9.1111624630219349E-04
          -9.3901405521608041E-05   -1.7440336409919399E-04   -6.6695306718574283E-04
          -5.9667439631847039E-04    2.1020879938511154E-03   -1.6524975844035120E-04
          -5.9413689338635989E-04   -1.8314218673361150E-04   -3.0878549941011093E-04
          -1.1299139622657575E-04   -1.9706794255864313E-04    5.4164798334682262E-04
           3.7379192865991210E-04   -2.2187500989082323E-04   -3.6215118742044213E-04
          -5.2111287106984690E-04    8.9091209793397690E-04   -5.6207250900348828E-04
           6.7919292604328037E-04    1.3343181455851498E-04   -5.4958333089136311E-04
          -5.0955912345382005E-05   -7.8811310900023268E-04    5.3306738437958363E-04
          -8.4615276351454106E-05   -4.3969810880308609E-04   -1.5061331385130780E-03
           1.9621493944749181E-04    7.0658921104164367E-04    7.9834173947810217E-04
          -3.1086266728845449E-04    7.4710976671303316E-04    4.9983161016378208E-04
          -7.7088036734465995E-04    8.7923123999389678E-04    4.4906439902008655E-04
           4.7843808737775307E-04    2.0885304145786056E-04    9.9081078440602989E-04
           2.7383478091356497E-04   -1.2076470166147698E-05    2.0312636572848292E-03
           2.2238602224629577E-04    4.5732113705939336E-04    2.0297495633904757E-03
          -1.3983314820069836E-04    6.4110517559062418E-04    2.3541721875050791E-04
           1.0634351964138838E-03   -8.1406755449470549E-04    2.5592615929535313E-04
           5.5764666824680584E-04   -2.4944020396428993E-04    1.0095491375696633E-03
           8.2355304835235780E-04    4.6265598281791339E-04    1.0873683440555362E-03
           1.0554542732457324E-03    1.4711843503863046E-03   -1.9257994644831671E-04
          -5.9301436636010447E-04    1.4338243179552140E-03   -1.0518598720301116E-03
           1.7009542630491280E-04   -2.7229621441460082E-04   -1.8275874433977226E-04
          -3.9794180044814593E-04    1.1377334676040385E-03    1.5111872074663081E-04
          -2.1010779020401595E-04    2.5908254733878052E-04    1.2965840741058290E-03
           5.7014687399219730E-04    4.3663748723848765E-04   -1.4622705924166238E-04
           2.7451658006066756E-04   -1.1055104188337214E-04   -2.7011911347904840E-04
          -1.5488517943960038E-03   -4.8268639176998610E-04    1.0661735519933617E-03
           1.1223093817033523E-04    6.1336181167337975E-04   -2.4337739021501628E-04
          -8.4642821008881384E-04    2.7314900747424614E-04    4.4966165018034009E-04
          -9.0281864257814575E-04    4.6471968390612991E-04   -2.6632644266205859E-04
          -1.1909602595254847E-03    3.2546725732589824E-05   -5.5177771591242075E-05
           2.6878284877097702E-04   -1.1019214431208946E-03    6.7804196597963352E-04
           3.1926309389528193E-04    1.0177813137654994E-03   -3.0847823992638301E-04
          -4.2284471691175698E-04    4.3959034011701117E-04   -8.2960000476284810E-04
           4.5763012013643335E-04   -7.2873611065639725E-04   -1.9810871954311008E-04
          -2.5435809607272019E-04   -2.9857092395125151E-04    4.0812967128402633E-04
          -1.7369381694188311E-04    6.5701533355840263E-04    1.2674523034332513E-03
           2.5615963332817067E-04   -1.0911306526950026E-06    1.1679000472696070E-03
          -1.6308109854868834E-05    1.3149337651267442E-03    1.0407917756214853E-03
           8.9763869710801939E-04   -3.3652501425729761E-04    5.8254652401729112E-04
           1.0486726918989032E-03    1.4387708623786585E-04   -1.3227328924967734E-03
          -7.1280006661948703E-04    3.7576614693771149E-04   -7.8229807967347665E-04
          -4.9597517526501694E-05    2.0943390440549377E-05   -3.3577883354993915E-04