 # Version information for this restart file 
 # current date 2023-08-03 14:56:38.712
 # current working dir /mnt/lustre/indy2lfs/work/tc047/tc047/mrnuff-cirrus/cp2k/nuff-benchmarks/H2O-64-16node
 # Program compiled at                               Wed Aug 2 15:51:15 BST 2023
 # Program compiled on                                             cirrus-login2
 # Program compiled for                                             Cirrus-intel
 # Source code revision number                                       git:d8d7100
 &GLOBAL
   PRINT_LEVEL  LOW
   PROJECT_NAME H2O-64
   RUN_TYPE  MD
 &END GLOBAL
 &MOTION
   &MD
     ENSEMBLE  NVE
     STEPS  10
     TIMESTEP     4.9999999999999994E-01
     STEP_START_VAL  10
     TIME_START_VAL     4.9999999999999982E+00
     ECONS_START_VAL    -1.1007623251464379E+03
     TEMPERATURE     3.0000000000000000E+02
     &AVERAGES  T
       &RESTART_AVERAGES
         ITIMES_START  1
         AVECPU     1.6750759311253205E+00
         AVEHUGONIOT     0.0000000000000000E+00
         AVETEMP_BARO     0.0000000000000000E+00
         AVEPOT    -1.1010668154404113E+03
         AVEKIN     3.0069890126035492E-01
         AVETEMP     3.3142439675494131E+02
         AVEKIN_QM     0.0000000000000000E+00
         AVETEMP_QM     0.0000000000000000E+00
         AVEVOL     1.2909542132085600E+04
         AVECELL_A     2.3458682268415796E+01
         AVECELL_B     2.3458682268415796E+01
         AVECELL_C     2.3458682268415796E+01
         AVEALPHA     9.0000000000000000E+01
         AVEBETA     9.0000000000000000E+01
         AVEGAMMA     9.0000000000000000E+01
         AVE_ECONS    -5.7036317320048404E+00
         AVE_PRESS     0.0000000000000000E+00
         AVE_PXX     0.0000000000000000E+00
       &END RESTART_AVERAGES
     &END AVERAGES
   &END MD
 &END MOTION
 &FORCE_EVAL
   METHOD  QS
   &DFT
     BASIS_SET_FILE_NAME GTH_BASIS_SETS
     POTENTIAL_FILE_NAME POTENTIAL
     &SCF
       SCF_GUESS  ATOMIC
       &OT  T
         MINIMIZER  DIIS
       &END OT
       &PRINT
         &RESTART  OFF
         &END RESTART
       &END PRINT
     &END SCF
     &QS
       EPS_DEFAULT     9.9999999999999998E-13
       EXTRAPOLATION  PS
       EXTRAPOLATION_ORDER  3
     &END QS
     &MGRID
       CUTOFF     2.8000000000000000E+02
       REL_CUTOFF     3.0000000000000000E+01
     &END MGRID
     &XC
       DENSITY_CUTOFF     1.0000000000000000E-10
       GRADIENT_CUTOFF     1.0000000000000000E-10
       TAU_CUTOFF     1.0000000000000000E-10
       &XC_FUNCTIONAL  NO_SHORTCUT
         &PADE  T
         &END PADE
       &END XC_FUNCTIONAL
     &END XC
   &END DFT
   &SUBSYS
     &CELL
       A     1.2413800000000002E+01    0.0000000000000000E+00    0.0000000000000000E+00
       B     0.0000000000000000E+00    1.2413800000000002E+01    0.0000000000000000E+00
       C     0.0000000000000000E+00    0.0000000000000000E+00    1.2413800000000002E+01
       MULTIPLE_UNIT_CELL  1 1 1
     &END CELL
     &COORD
O    1.2265691221627950E+01    1.3554379171423934E+00    1.0875430684012713E+01
O    6.4523069643984963E+00    3.7059062633719235E+00    8.6472636643113514E+00
O    7.7675673951378366E-02    2.1684371536246321E+00    8.2608521123256136E+00
O    1.2086330589737109E+01    2.6383252619362128E+00    2.1708326975636703E+00
O    1.2290560196510306E+01    4.1705949204699797E+00    1.2102197043947420E+01
O    7.2035596726109690E+00    9.4146485856915785E-01    4.7596718561381177E+00
O    8.3332223409533501E+00    7.2077504740971996E+00    4.6827221582125960E+00
O    1.2331825707496039E+01    1.1521085308244974E+01    8.0815299734465640E+00
O    3.2742345188961566E+00    4.4591086965600022E+00    9.1745403213677132E+00
O    2.8601595120416712E+00    3.7871245016871993E+00    6.5410915744247182E+00
O    1.3797112886110063E+00    6.3917880581901212E+00    5.6509704637618130E-01
O    1.8717761880990382E+00    8.6859262981941718E+00    2.0908519529191194E+00
O    3.7724064802103712E+00    1.2107291458155812E+01    8.6206045004982386E+00
O    6.4253589961830171E+00    3.6667889351993601E+00    2.7875811960065460E+00
O    1.9996776817699105E+00    1.8525814940777738E+00    4.8671276287697127E+00
O    8.2870232697560127E+00    2.4222003421165166E+00    6.9417328333568644E+00
O    5.7524951496893371E+00    3.3354107633529178E+00    1.2486441927304304E+01
O    1.1313051414990110E+01    5.6568428932996433E+00    2.2481541693217792E+00
O    4.2889057121707488E+00    2.1146768890845120E+00    1.0586394798004818E+01
O    5.3987998378703113E+00    3.3584238927998560E+00    5.4860023554711805E+00
O    6.5093881290543978E+00    1.1870556687544111E+01    7.1448877052675019E-01
O    3.2525895246416536E+00    2.3434817325715263E+00    2.4132492711214559E+00
O    8.0086831362982167E+00    6.3565304698358327E+00    7.4977786194836273E+00
O    5.9288605826881184E+00    6.5082868323258856E+00    1.2195795095729444E+01
O    1.0610386311436542E+01    1.1861263632461037E+01    1.2200578573099014E+01
O    9.3403643295944825E+00    3.6891058088922026E+00    3.5273419115088926E+00
O    1.1111299843540834E+00    5.7890416771149793E+00    6.6473030303814404E+00
O    8.0194980711237900E+00    3.3269761635710458E+00    1.0869760158477494E+01
O    1.2376083013546667E+01    9.6748017485164208E+00    1.1772437464201849E+01
O    4.2098973265834845E+00    7.0914059878456772E+00    8.1403049713511209E+00
O    3.7839651612970413E+00    8.2290477965538500E+00    1.1585029598452721E+01
O    1.1076298200094985E+01    4.5429098149790592E+00    7.8327544665100843E+00
O    1.0435269832523133E+01    8.4217540714630772E+00    1.0328469115847685E+00
O    1.9827956974872922E+00    6.4005653370062161E+00    1.0353833557955948E+01
O    4.7041684252649905E+00    5.6226860857463723E-01    5.6097297040744447E+00
O    8.7178686987316869E+00    1.2242114021519088E+01    8.0976596680829420E+00
O    2.6327397232809320E+00    1.0520524625894550E+01    8.2914708818949606E-02
O    7.2399912123022041E+00    1.0511639516828584E+01    4.2432763972060394E+00
O    2.2807117212628341E+00    2.7612433538578385E-01    1.0807249794939549E+01
O    8.8632074472443758E+00    9.4642167576061154E-01    1.3400870233089985E+00
O    1.9443010564854049E+00    8.0893907787972346E+00    7.5354954085064962E+00
O    9.6598268770605689E+00    8.0354923931291715E+00    9.8565408159862145E+00
O    1.0903669231891188E+01    8.3307122625610077E+00    6.4773119488925479E+00
O    3.5124665132315189E+00    4.8693737552338421E+00    1.5451810315134311E+00
O    7.9775887181865519E+00    8.6026768360209704E+00    1.2050859810705251E+01
O    8.3694028848611790E+00    1.0019375195784733E+01    6.6836126003785825E+00
O    5.6546609223314137E+00    6.0810554249665705E+00    5.5283899539327477E+00
O    1.1742552751790555E+01    1.6241883377932229E+00    5.0859546263628106E+00
O    9.7585749951473950E+00    9.8110344561913010E+00    3.5364834297912844E+00
O    3.9627902122681089E+00    1.0548916241539336E+01    4.6848631718496572E+00
O    9.0110924202405407E-01    6.3699160958047987E+00    4.0614660823325490E+00
O    6.8825876156875951E+00    6.4084176011473009E+00    2.5046872105492461E+00
O    3.8180772811827186E+00    6.6391261700160964E+00    3.7786504202964859E+00
O    6.5639467316230382E+00    8.3081673455500891E+00    8.8142645601751237E+00
O    9.7792980437880992E+00    1.3440093692248145E-01    3.8518018541300227E+00
O    4.1040698796140473E+00    1.1645975677414310E+01    2.2167371830935645E+00
O    5.3225429743820509E+00    8.7370886225245474E+00    2.7520608154200930E+00
O    1.0008058591962541E+01    5.3735029665408245E+00    5.3757689310938561E+00
O    1.2260293130221493E+01    8.6464312203550939E+00    3.9709765249997520E+00
O    2.3431385601209938E+00    1.0747244557908886E+01    6.8128199420222755E+00
O    7.0016868551874261E+00    6.6241368924082700E-01    1.0534335410490771E+01
O    5.1724988369890701E+00    1.0218489635933004E+01    1.0357201131261686E+01
O    1.1186305513789559E+01    5.8851551015739716E+00    1.0299187716035526E+01
O    1.2277001260224349E+01    8.9569800093948952E+00    9.0707829070917292E+00
H    1.2357860830731720E+01    2.3336130669253130E+00    1.1187155568543391E+01
H    1.1946220241711025E+01    1.5338173488074800E+00    9.8820453883929460E+00
H    5.5871853426089348E+00    3.4492613541409187E+00    9.0443492587056706E+00
H    6.8931134907708298E+00    3.0239505626689605E+00    7.9852740730677185E+00
H   -1.4374932807747964E-01    1.5098328419609670E+00    7.5263433502060080E+00
H   -3.8863081470391264E-01    3.0530889725933470E+00    7.9297897962466122E+00
H    1.2176296489828314E+01    2.9747369580386853E+00    1.1924332874809600E+00
H    1.2991672705128487E+01    2.9142153785987785E+00    2.5155247900316624E+00
H    1.1517567593231766E+01    4.3255900368446456E+00    1.1434680677253001E+01
H    1.2784986513018193E+01    5.0635244336048508E+00    1.2040091012079127E+01
H    6.9670622346703377E+00    1.7387225601621574E+00    4.1850000735928328E+00
H    6.2296039666331033E+00    6.8947303211067712E-01    5.1579542956582340E+00
H    7.7273735081136792E+00    7.2217674062564976E+00    5.4888583172762075E+00
H    9.1692072167870684E+00    6.6296203275140639E+00    4.9460943069402896E+00
H    1.2846855747609803E+01    1.1781022044300951E+01    8.9005547148166624E+00
H    1.1983278974113825E+01    1.0563476629178115E+01    8.3168526530914644E+00
H    3.5248483355810198E+00    3.8400890178712044E+00    9.9509258876193130E+00
H    2.4297317699945720E+00    4.9331020171901931E+00    9.5245232744317132E+00
H    2.1731938184002924E+00    4.5584091436367986E+00    6.3013341591592908E+00
H    2.8564526256040681E+00    3.8576860117976413E+00    7.5841383258265189E+00
H    1.1402539117553607E+00    7.1967454275136964E+00    1.1594208983718437E+00
H    2.2451171240553927E+00    6.0044560574518666E+00    1.0028292980712867E+00
H    2.8160026093260981E+00    8.9701473038211059E+00    2.2994247561327317E+00
H    1.3289450005949162E+00    8.9940773536406500E+00    2.8983100092881853E+00
H    4.4550591679044835E+00    1.1540320632851477E+01    9.1643576662466533E+00
H    3.0505711472945789E+00    1.2474005028879860E+01    9.2862522483543728E+00
H    5.8591666421268789E+00    3.4580100700777288E+00    3.6616851024568247E+00
H    5.8328742264891416E+00    3.4002922178486688E+00    1.9823307374075323E+00
H    9.5572611638983940E-01    1.6451712168316257E+00    4.8407909619532523E+00
H    2.2283444181418695E+00    2.4812713852577724E+00    5.6873030305147223E+00
H    8.4431245059900739E+00    1.6049877318587991E+00    7.5442116124544389E+00
H    8.0660994841678786E+00    2.0136933689786467E+00    6.0338203198000251E+00
H    5.2179741117745513E+00    2.8944033191686760E+00    1.1676399084693433E+01
H    6.6808709760189453E+00    3.4137078887782186E+00    1.1974300217660485E+01
H    1.0787579562973409E+01    6.5181197889747589E+00    2.0988579269068235E+00
H    1.1679706778665397E+01    5.3602110737704916E+00    1.3423727078772034E+00
H    3.4353057955579422E+00    1.5422699911176652E+00    1.0899340815425424E+01
H    4.8360485702946550E+00    1.4266340285649526E+00    1.0089916384864621E+01
H    4.3860607829045017E+00    3.3639145070872836E+00    5.6882685052593365E+00
H    5.6851714190646847E+00    4.3694444329673239E+00    5.5474154036562959E+00
H    6.2904804048383953E+00    1.1824217953334239E+01    1.7188480100643018E+00
H    5.6254641812453174E+00    1.2118531010247475E+01    3.2824508347038056E-01
H    3.5448573483477692E+00    1.3905341519236127E+00    2.1815279666971694E+00
H    2.6083113748095301E+00    2.2011598085359774E+00    3.2448945681040779E+00
H    7.1214218837231211E+00    5.8747071446837342E+00    7.5240572137576809E+00
H    8.6555160568687821E+00    5.7350202337796308E+00    7.0296204332783958E+00
H    6.0003836070026901E+00    5.6511562312010257E+00    1.1673082486798616E+01
H    6.2576732802189285E+00    6.3249637437985662E+00    1.3168254323635322E+01
H    1.1110396422510835E+01    1.2636582150483820E+01    1.1695466243762903E+01
H    1.0264522667314274E+01    1.2297177086809594E+01    1.3044653989288506E+01
H    9.9063833653607354E+00    4.0522743932581911E+00    2.7328440010561441E+00
H    8.5320879706477690E+00    3.4662362318687938E+00    2.9418373706983796E+00
H    1.4550165199538736E+00    6.6684268578472734E+00    7.1063081480779005E+00
H    1.0011846960113668E+00    6.1757849888512677E+00    5.6553257210842176E+00
H    7.9834383168154162E+00    3.6965600156461487E+00    9.9295254035484444E+00
H    8.0703050731565877E+00    2.3148761700541187E+00    1.0750109953178582E+01
H    1.1741856955038637E+01    1.0457046792693751E+01    1.2099116522328817E+01
H    1.2145113035773305E+01    8.9347057518292754E+00    1.2412278015077247E+01
H    3.3373441398218198E+00    7.6121189967396514E+00    7.8531113790443445E+00
H    3.8437404997803135E+00    6.2417170006997029E+00    8.6113781620860603E+00
H    3.1132048694103971E+00    7.6196674890886307E+00    1.1070334639355769E+01
H    4.4752609606014548E+00    7.6309535586688488E+00    1.2076672515554817E+01
H    1.1595109075910530E+01    4.9845971853208928E+00    7.0588086549215747E+00
H    1.0300179646157103E+01    4.1359780470037144E+00    7.3180405599936815E+00
H    1.0066859028657756E+01    8.9451142006841113E+00    1.8647420070759193E+00
H    9.5720897423752032E+00    8.2655563920177268E+00    4.9823227537674908E-01
H    1.3189876664556786E+00    6.6902311101738503E+00    9.6502228821049201E+00
H    1.4021547291053722E+00    6.4513381197009805E+00    1.1227717775738517E+01
H    4.1225227084815073E+00    1.3300958457230918E+00    5.2660310885245565E+00
H    4.6863014012484152E+00    6.4332081832290167E-01    6.6181574626620510E+00
H    9.4703739840674412E+00    1.2334173896528005E+01    8.7409121785593715E+00
H    8.8486705805522572E+00    1.1353162651343641E+01    7.5414161566642584E+00
H    1.7346243376507249E+00    1.0023269196055034E+01    1.4521089677737231E-01
H    3.3374330937771295E+00    9.8445733321797757E+00   -2.3578650080721286E-01
H    7.0506121547580367E+00    1.1505999570464038E+01    4.1254822367652624E+00
H    6.4716144239809417E+00    9.9355117782158882E+00    3.7910213271467450E+00
H    1.3268017188784316E+00    5.8361467399921729E-01    1.1128891425287955E+01
H    2.5223736851219716E+00   -5.4515284208272463E-01    1.1460505429957252E+01
H    8.7695034601090658E+00    1.8730261306347378E+00    9.9022339814257632E-01
H    8.0909040111767165E+00    3.3982611891716075E-01    9.9167137075829825E-01
H    1.1204885569464949E+00    8.3716616986635461E+00    8.1793585849232961E+00
H    2.0883466262744257E+00    8.9941815003034478E+00    7.0139251045160806E+00
H    8.9092338083701854E+00    7.7940115337034861E+00    9.2222012190835461E+00
H    9.0650360993651358E+00    8.4492997048298708E+00    1.0614237103704372E+01
H    1.0125261936622167E+01    7.6972651388061077E+00    6.4508008035737632E+00
H    1.0499882480553755E+01    9.1992905673856917E+00    6.1555510652606538E+00
H    3.4970438967309163E+00    3.9586491104196910E+00    2.1122397671540245E+00
H    4.0583866165583480E+00    4.5845492847974452E+00    7.4299433254013647E-01
H    7.3547019310357822E+00    9.3907165959532541E+00    1.2034560547161014E+01
H    7.3341204126244248E+00    7.7711803058268520E+00    1.2054181675347335E+01
H    7.8271359122356907E+00    1.0161864557796241E+01    5.7814824441727453E+00
H    7.7120973949995282E+00    9.5091968613048099E+00    7.2843865451263055E+00
H    5.2900515914215784E+00    6.4890676352475642E+00    6.3929667695951471E+00
H    4.8679125606974916E+00    6.3175498760845166E+00    4.8312977475729690E+00
H    1.1521813479056267E+01    2.1923134294363198E+00    4.2496119720284229E+00
H    1.1222779192576647E+01    7.8413521722496604E-01    4.7830452887770685E+00
H    8.8119906724500616E+00    9.6778997188619371E+00    3.9666598404568316E+00
H    9.9342635723549932E+00    1.0814166420178891E+01    3.7816690213250919E+00
H    3.1082412934277723E+00    1.0546280663962255E+01    5.2869156842282283E+00
H    4.3132121960852112E+00    1.1455647024803650E+01    5.0610955611754482E+00
H    4.2219844129737027E-01    7.3045251091106982E+00    3.8013411241086033E+00
H    2.9766507545155768E-01    5.7724531525169684E+00    3.4527167705325872E+00
H    7.5860409191410394E+00    6.5679521129193121E+00    3.2915919983254880E+00
H    6.6758593794492436E+00    5.3831662367036284E+00    2.5200074513617539E+00
H    3.8532901491628806E+00    6.3060011184122322E+00    2.8123839800106194E+00
H    2.7953202289157262E+00    6.5486583544770953E+00    3.9537589710661512E+00
H    5.5553109353381691E+00    8.0120428669701678E+00    8.6584496783238105E+00
H    6.9993998569156863E+00    7.4780307290168988E+00    8.4104207149777324E+00
H    9.5571587465053263E+00    7.3282222377268946E-01    3.0174934412139289E+00
H    8.9237161921950854E+00    1.3434744964804060E-01    4.4076415640869140E+00
H    3.8482518861386787E+00    1.1174452569524469E+01    1.3441132624695249E+00
H    3.9626527205396060E+00    1.0964284064940975E+01    3.0102559476075856E+00
H    5.9449721154895414E+00    7.8892003227199474E+00    2.7995602859870479E+00
H    4.7651318478107525E+00    8.7229145811686273E+00    3.5906365527452619E+00
H    1.0905855590462341E+01    5.5302297929428423E+00    4.9343939976041744E+00
H    9.5033533984917131E+00    4.6732861306340787E+00    4.7170650155467539E+00
H    1.1491935736740167E+01    9.0019296606962520E+00    3.3983882088431074E+00
H    1.1959938005669095E+01    8.7851571773518664E+00    4.9401248591306270E+00
H    2.9404442925200041E+00    1.1333366123652482E+01    7.4880999173575393E+00
H    1.3993361021505550E+00    1.1120249168991585E+01    6.8063795104245948E+00
H    7.2180390176118516E+00    1.2798394447447464E-01    9.7032741476543336E+00
H    7.1646531631432531E+00    1.0771817698140958E-01    1.1367537673088348E+01
H    4.8113494103451577E+00    9.3237233228419729E+00    1.0837722105749508E+01
H    6.0817040348705813E+00    9.8061889870779400E+00    1.0186961890390583E+01
H    1.0565212968846112E+01    6.7306912582550433E+00    1.0314509384118793E+01
H    1.1239212631589330E+01    5.5937306260538291E+00    9.3143955162383083E+00
H    1.2188441116721869E+01    8.9926759698746377E+00    1.0127830375806914E+01
H    1.1415745606507945E+01    8.6329943934296605E+00    8.6365927756282606E+00
     &END COORD
     &VELOCITY
           2.4352895689765157E-04   -1.2005787686872752E-04    8.6437472843373721E-05
           5.1308833497100465E-05   -1.2157267875564193E-06   -1.4102765547997739E-05
          -1.3301557325145637E-04   -8.3933401104611680E-05   -1.7228315507899307E-04
           3.2310035322845098E-04   -2.8975142829627782E-04    2.2821840321554941E-04
           3.6814672511772652E-04   -1.6545926054256741E-04    8.2260305156824399E-05
           8.6833533914831712E-05   -1.6730042257723379E-04    2.3230467887972478E-04
          -1.9151490594550334E-04    3.6505951846816112E-05    1.7677888658431190E-04
          -2.7334923677286470E-04   -2.0364577271688395E-06   -2.5180936275496878E-04
          -2.9104530009439338E-04    1.4206649360480961E-04   -9.4225803956421984E-05
           4.9611736872636405E-05    1.9755004721351224E-04   -3.9672360394050563E-05
          -1.0339976255319251E-04    2.5535991311200087E-04   -1.7751224400543663E-04
           1.2391364052834346E-04   -5.1653553927043281E-05    2.4858753532798505E-04
           3.7151260902611016E-05    1.3910103950700003E-04   -2.6002426241714886E-04
          -9.0568511030051030E-05   -5.4222395370934827E-05    1.3572623090170397E-04
          -1.3545521085396468E-05    2.9306779465248622E-04   -1.1045795169701033E-04
           3.4361721983046302E-04    1.2593016463801336E-04    1.2983789202364042E-04
           3.1082499004542045E-05   -2.1485637728369911E-04    1.3648810971786987E-04
          -1.1186997159011893E-04    8.8655851502115438E-05    8.1590272417848502E-05
           7.2533933878542373E-05   -7.4819315188405448E-05   -3.7629488888724055E-05
          -3.9322988575919720E-05    7.7713369531347897E-05   -4.9484602597755538E-05
           1.3057379766196031E-04    3.2998964297661725E-05    2.3389866014332273E-04
          -2.3509358637259999E-04   -1.3034774433787818E-04   -7.8879784829683449E-05
           2.2663974882105339E-04    3.8940882887252012E-06   -1.0672780451649141E-04
          -4.8905242918536869E-04   -8.8291554418424390E-05    4.1273297091915450E-05
          -2.3517177964214129E-04    3.0047635156113372E-05   -4.3285500883851814E-05
           2.3871849795331138E-04    1.6484647710421954E-04   -6.5701800580289758E-06
           2.1756702607361410E-06   -3.6685136594095637E-04    1.9083731500294152E-05
           1.5263277743754542E-04   -4.5406823835214374E-05   -4.7850620499758086E-05
          -2.4366711287572316E-04   -1.5793106100414820E-04    1.4697438563679585E-04
          -4.6380813505859329E-05    6.7005925797333841E-05   -1.4094312562505437E-04
           7.0386578673297011E-05    1.4790076784346962E-04    2.3286433602936004E-04
          -1.0544099119085453E-04    9.0971533133887101E-05    1.4244526951983028E-04
           3.9446322296781832E-04    6.7569172820498407E-05    1.1084316707446583E-04
          -7.7542156657870172E-05   -1.2551164720843582E-04   -1.9898819772580509E-04
           4.0834979217828506E-04    1.4764967627277069E-04    2.0705283491258015E-05
          -2.3057413576375928E-04   -1.2071393189600065E-04    1.1534324681658952E-04
          -2.2445140569559135E-04    3.2516286912542895E-04   -1.1004648482202665E-04
          -2.5249548995056529E-05    3.9104765548123163E-04    1.6361307451904743E-04
           2.2783467789908021E-05   -6.3114575284996772E-06    4.4689206318974965E-05
          -2.2749371826772435E-04   -7.0059699218790711E-06    6.3814403817101688E-05
          -7.5853164186834044E-05    8.7002441538069160E-05   -2.6945242200118486E-04
          -1.5174645296461235E-04   -1.6488710611738456E-04   -8.8599937395648473E-05
           8.3186202726188924E-06   -5.3104079059682099E-05   -7.5058533110950579E-05
           6.6500165507057011E-05    1.1873974520029506E-04   -1.6876577035689579E-04
          -3.6861210826445587E-04   -4.4905138593370265E-04   -7.2135058686528198E-05
          -1.2506938727225626E-04   -2.1650974605744486E-04    1.4245782354369299E-05
           1.5305853253040429E-04    7.8061367149854610E-05   -2.6041680607617816E-04
           1.1603170847563741E-04    1.3154101218172527E-04    1.9734889966853550E-05
          -2.7566410321024930E-05    4.9188391052256803E-05   -8.2861079404367757E-05
           1.7539773471397319E-04   -1.0194492078791430E-04   -1.5958541295172922E-05
           9.1160346889259892E-06   -1.7067102899795248E-04   -1.2704807040661738E-04
           2.0533708583841923E-04   -1.8520865666315844E-04    1.5572511017070478E-04
          -9.5059251454748759E-05    3.8900119903827104E-04    6.8133144196750507E-05
          -3.3406382323971999E-05    1.1411499707532065E-04    4.8377796709618201E-05
          -3.2166174218022797E-04   -6.7429210558145824E-05   -3.3439454031886030E-04
          -1.0567197804907249E-04   -1.8604152118386483E-04   -4.1177966912090300E-05
           3.0232555384631618E-04    4.4482755864446648E-08   -4.0954738013804760E-05
           3.4127138907880420E-04   -7.5686724691518512E-05    3.1369710523438277E-04
           4.8645208045565543E-06    9.5406277062004416E-05    4.0430203565944074E-05
          -7.3487234920664027E-05   -1.1019701265498698E-04   -1.6988167751793911E-04
          -9.5116294348605848E-05    1.5929238980005617E-04    1.0050636564717774E-04
           2.9577452115327543E-04   -2.0295534619206947E-04   -3.8717435446715312E-06
           3.3427097552601092E-05    2.9886113904232171E-05    2.3028601056756186E-05
           2.1249634917610565E-04   -1.8765388695175447E-04   -7.1382764687625180E-05
          -4.5134200613954572E-04   -3.6461998037372502E-05   -6.2014780459346372E-04
           9.6717121607346670E-04   -4.1496771604885630E-04   -1.4275705698022466E-03
           7.4612048410898767E-04    7.4926340799310231E-04   -2.8983563265552100E-05
           1.1950822730794500E-03   -2.4938163772301937E-04   -4.6955699926642865E-04
           3.3437263773359829E-04   -4.4066319731100677E-04   -4.5337897815315970E-04
           1.1011431662360457E-03    2.9139917327000925E-04   -1.2198962736655642E-03
           2.2385249970982259E-04    1.5948609342866008E-03   -3.7881054219678404E-04
           1.0079326383143506E-03   -6.8228660473656859E-04    2.6177285017351618E-04
          -7.1676772164256115E-05    2.5746464897504469E-05   -1.3520750351051980E-04
          -6.5359743159787431E-04   -1.1729133117584555E-04    1.7260386305552555E-04
          -6.3946645532051869E-04   -9.4886603545393214E-04   -2.5714998908679492E-04
          -3.9131100882578177E-04   -2.4416892644907469E-04   -5.0810873229621570E-04
           2.8831271511781570E-04   -2.0448067102043421E-03   -7.4372526401906582E-04
           3.8720872054112080E-04   -1.5659038684777563E-03   -8.1922109566850585E-04
           6.6131192185297149E-04   -2.0572267226596114E-04   -4.7008211594089564E-04
          -4.8840437589614704E-05   -1.4279618006784367E-03    8.4954144524126171E-04
          -5.1075273925328723E-04    9.0001937672918989E-04   -4.3720385364824616E-04
           2.7825781517026318E-04    1.1169167719137326E-04   -5.6938528402044112E-04
          -1.5084824930719331E-03    7.3769946902029306E-04   -6.1844046653160050E-06
           2.4538874923092077E-04    9.7494646952742570E-04   -4.8314180616375996E-04
          -8.5480359469586247E-05    5.9478416171990255E-04   -4.9304901635511526E-05
          -6.8266994505368050E-04   -5.5575566575078567E-04    7.1333097089153945E-04
           4.9456847776372170E-05    6.5025459335143663E-04   -7.7972174813141829E-04
           7.9382955321234588E-05   -7.8198264146541407E-04    7.2595378947554797E-04
           2.5852131569695030E-04    7.5469391168065826E-05   -5.8533339039012003E-04
           3.2409077359233675E-04   -2.7317136237373199E-04    2.5330976797398037E-04
          -1.0540506164930066E-03    5.0562455740649171E-04    7.1097587663812242E-04
           8.0546734662992716E-04   -1.4475933298845772E-04   -9.1148946840028115E-04
          -9.4447429203736299E-05   -1.7442565229240859E-04   -6.6682127829295710E-04
          -5.9604062243111874E-04    2.1026825326409078E-03   -1.6362959701151435E-04
          -5.9396099203119486E-04   -1.8326838202808359E-04   -3.0896384759953498E-04
          -1.1277145426140702E-04   -1.9670835969143156E-04    5.4210691562783266E-04
           3.7332633879017202E-04   -2.2247370329960312E-04   -3.6283756805576711E-04
          -5.2077706488999577E-04    8.9077612568282322E-04   -5.6184164068806878E-04
           6.7815751256055127E-04    1.3444514439599594E-04   -5.4935154403537871E-04
          -5.1310271397854814E-05   -7.8829554704046506E-04    5.3276039723491539E-04
          -8.5130409008690597E-05   -4.3984632745437951E-04   -1.5059866460090067E-03
           1.9680255628256739E-04    7.0602917217211462E-04    7.9813152563428208E-04
          -3.1120886791482800E-04    7.4703220925012223E-04    4.9930464952325940E-04
          -7.7046114692576448E-04    8.8060124138421422E-04    4.4946245364727022E-04
           4.7827412322303843E-04    2.0967831427578628E-04    9.9045583190824770E-04
           2.7338768314280588E-04   -1.2911505093778362E-05    2.0308294566625121E-03
           2.2268144216420203E-04    4.5671096290484818E-04    2.0294438627026716E-03
          -1.3963762680740805E-04    6.4107067981949322E-04    2.3590679284397510E-04
           1.0627265607013807E-03   -8.1441755638452353E-04    2.5570925291558058E-04
           5.5752905183578162E-04   -2.4904265433725831E-04    1.0092943120090215E-03
           8.2308722579919880E-04    4.6317561234326905E-04    1.0881531478775951E-03
           1.0550329244339576E-03    1.4718671462277176E-03   -1.9479088051864836E-04
          -5.9234975152920350E-04    1.4349114685489408E-03   -1.0527038082672072E-03
           1.6932613075107435E-04   -2.7170861877196033E-04   -1.8216829137886295E-04
          -3.9770868215896748E-04    1.1372230153317091E-03    1.5121550510485820E-04
          -2.1017769408580205E-04    2.5917097130922730E-04    1.2964206860150498E-03
           5.7060427920689702E-04    4.3671541265215237E-04   -1.4660693893235482E-04
           2.7365554736376210E-04   -1.1051173482226169E-04   -2.7041350586074782E-04
          -1.5490310923860369E-03   -4.8289839359959904E-04    1.0665735172156118E-03
           1.1224150504743225E-04    6.1359106771434534E-04   -2.4338314528403286E-04
          -8.4574512528151895E-04    2.7257287515223454E-04    4.4909119714588299E-04
          -9.0308194375670389E-04    4.6440059127811378E-04   -2.6541928311803951E-04
          -1.1903653561434217E-03    3.2337940588354855E-05   -5.5038916003238691E-05
           2.6854808173648744E-04   -1.1020380157708697E-03    6.7777744830724805E-04
           3.1913849413678700E-04    1.0174460215397760E-03   -3.0838829165605005E-04
          -4.2287091606879780E-04    4.3945863777045043E-04   -8.2903290423498978E-04
           4.5796851367068883E-04   -7.2851844241772522E-04   -1.9906514358212224E-04
          -2.5421516948732973E-04   -2.9861670766348340E-04    4.0880986581273552E-04
          -1.7312719899224908E-04    6.5870510360976236E-04    1.2668576802563143E-03
           2.5583564444007362E-04   -7.9678978525208065E-07    1.1677936184240905E-03
          -1.5491526836974834E-05    1.3159291771840762E-03    1.0400222974271752E-03
           8.9575808404868031E-04   -3.3563207832081906E-04    5.8434047540628273E-04
           1.0485189083683274E-03    1.4354236887322705E-04   -1.3233266899004199E-03
          -7.1283458300107610E-04    3.7647186490121594E-04   -7.8163815423100316E-04
          -5.0191624993702578E-05    2.0915573577319659E-05   -3.3662881984304838E-04